Version,
  9.6;

SimulationControl,
  Yes,
  Yes,
  Yes,
  No,
  Yes,
  No,
  1;

Building,
  Untitled,
  0.0,
  City,
  0.04,
  0.4,
  FullInteriorAndExterior,
  25,
  ;

Timestep,
  6;

Site:Location,
  Las Vegas Mccarran Intl Ap,
  36.08,
  -115.15,
  -8.0,
  648.0;

RunPeriod,
  run,
  1,
  1,
  ,
  12,
  31,
  ,
  ,
  Yes,
  No,
  No,
  Yes,
  Yes,
  No,
  Hour24;

ScheduleTypeLimits,
  Any Number;

ScheduleTypeLimits,
  Fraction,
  0.0,
  1.0,
  CONTINUOUS;

ScheduleTypeLimits,
  Temperature,
  -60,
  200,
  CONTINUOUS;

ScheduleTypeLimits,
  On/Off,
  0,
  1,
  DISCRETE;

ScheduleTypeLimits,
  Control Type,
  0,
  4,
  DISCRETE;

ScheduleTypeLimits,
  Humidity,
  10,
  90,
  CONTINUOUS;

ScheduleTypeLimits,
  Number;

Schedule:Compact,
  Office Lights Schedule,
  Fraction,
  Through: 12/31,
  For: Weekdays,
  Until: 05:00,
  0.05,
  Until: 07:00,
  0.1,
  Until: 08:00,
  0.3,
  Until: 17:00,
  0.9,
  Until: 18:00,
  0.5,
  Until: 20:00,
  0.3,
  Until: 22:00,
  0.2,
  Until: 23:00,
  0.1,
  Until: 24:00,
  0.05,
  For: SummerDesignDay,
  Until: 24:00,
  1.0,
  For: Saturday,
  Until: 06:00,
  0.05,
  Until: 08:00,
  0.1,
  Until: 12:00,
  0.3,
  Until: 17:00,
  0.15,
  Until: 24:00,
  0.05,
  For: WinterDesignDay,
  Until: 24:00,
  0.0,
  For: Sunday Holidays AllOtherDays,
  Until: 24:00,
  0.05;

Schedule:Compact,
  Office Equipment Schedule,
  Fraction,
  Through: 12/31,
  For: Weekdays,
  Until: 08:00,
  0.40,
  Until: 12:00,
  0.90,
  Until: 13:00,
  0.80,
  Until: 17:00,
  0.90,
  Until: 18:00,
  0.50,
  Until: 24:00,
  0.40,
  For: SummerDesignDay,
  Until: 24:00,
  1.0,
  For: Saturday,
  Until: 06:00,
  0.30,
  Until: 08:00,
  0.4,
  Until: 12:00,
  0.5,
  Until: 17:00,
  0.35,
  Until: 24:00,
  0.30,
  For: WinterDesignDay,
  Until: 24:00,
  0.0,
  For: Sunday Holidays AllOtherDays,
  Until: 24:00,
  0.30;

Schedule:Compact,
  Office Occupancy Schedule,
  Fraction,
  Through: 12/31,
  For: Weekdays,
  Until: 06:00,
  0.0,
  Until: 07:00,
  0.1,
  Until: 08:00,
  0.2,
  Until: 12:00,
  0.95,
  Until: 13:00,
  0.5,
  Until: 17:00,
  0.95,
  Until: 18:00,
  0.3,
  Until: 20:00,
  0.1,
  Until: 24:00,
  0.05,
  For: SummerDesignDay,
  Until: 06:00,
  0.0,
  Until: 22:00,
  1.0,
  Until: 24:00,
  0.05,
  For: Saturday,
  Until: 06:00,
  0.0,
  Until: 08:00,
  0.1,
  Until: 12:00,
  0.3,
  Until: 17:00,
  0.1,
  Until: 19:00,
  0.0,
  Until: 24:00,
  0.0,
  For: WinterDesignDay,
  Until: 24:00,
  0.0,
  For: Sunday Holidays AllOtherDays,
  Until: 06:00,
  0.0,
  Until: 18:00,
  0.0,
  Until: 24:00,
  0.0;

Schedule:Compact,
  Infiltration Schedule,
  Fraction,
  Through: 12/31,
  For: Weekdays SummerDesignDay,
  Until: 06:00,
  1.0,
  Until: 22:00,
  0.0,
  Until: 24:00,
  1.0,
  For: Saturday WinterDesignDay,
  Until: 06:00,
  1.0,
  Until: 18:00,
  0.0,
  Until: 24:00,
  1.0,
  For: Sunday Holidays AllOtherDays,
  Until: 24:00,
  1.0;

Schedule:Compact,
  Infiltration Half On Schedule,
  Fraction,
  Through: 12/31,
  For: Weekdays SummerDesignDay,
  Until: 06:00,
  1.0,
  Until: 22:00,
  0.5,
  Until: 24:00,
  1.0,
  For: Saturday WinterDesignDay,
  Until: 06:00,
  1.0,
  Until: 18:00,
  0.5,
  Until: 24:00,
  1.0,
  For: Sunday Holidays AllOtherDays,
  Until: 24:00,
  1.0;

Schedule:Compact,
  Infiltration Quarter On Schedule,
  Fraction,
  Through: 12/31,
  For: Weekdays SummerDesignDay,
  Until: 06:00,
  1.0,
  Until: 22:00,
  0.25,
  Until: 24:00,
  1.0,
  For: Saturday WinterDesignDay,
  Until: 06:00,
  1.0,
  Until: 18:00,
  0.25,
  Until: 24:00,
  1.0,
  For: Sunday Holidays AllOtherDays,
  Until: 24:00,
  1.0;

Schedule:Compact,
  Hours of Operation Schedule,
  On/Off,
  Through: 12/31,
  For: Weekdays SummerDesignDay,
  Until: 06:00,
  0.0,
  Until: 22:00,
  1.0,
  Until: 24:00,
  0.0,
  For: Saturday WinterDesignDay,
  Until: 06:00,
  0.0,
  Until: 18:00,
  1.0,
  Until: 24:00,
  0.0,
  For: Sunday Holidays AllOtherDays,
  Until: 24:00,
  0.0;

Schedule:Compact,
  Always On,
  Fraction,
  Through: 12/31,
  For: AllDays,
  Until: 24:00,
  1.0;

Schedule:Compact,
  Always Off,
  Fraction,
  Through: 12/31,
  For: AllDays,
  Until: 24:00,
  0.0;

Schedule:Compact,
  Heating Setpoint Schedule,
  Temperature,
  Through: 12/31,
  For: Weekdays,
  Until: 05:00,
  15.6,
  Until: 19:00,
  21.0,
  Until: 24:00,
  15.6,
  For SummerDesignDay,
  Until: 24:00,
  15.6,
  For: Saturday,
  Until: 06:00,
  15.6,
  Until: 17:00,
  21.0,
  Until: 24:00,
  15.6,
  For: WinterDesignDay,
  Until: 24:00,
  21.0,
  For: Sunday Holidays AllOtherDays,
  Until: 24:00,
  15.6;

Schedule:Compact,
  Cooling Setpoint Schedule,
  Temperature,
  Through: 12/31,
  For: Weekdays SummerDesignDay,
  Until: 06:00,
  30.0,
  Until: 22:00,
  24.0,
  Until: 24:00,
  30.0,
  For: Saturday,
  Until: 06:00,
  30.0,
  Until: 18:00,
  24.0,
  Until: 24:00,
  30.0,
  For WinterDesignDay,
  Until: 24:00,
  30.0,
  For: Sunday Holidays AllOtherDays,
  Until: 24:00,
  30.0;

Schedule:Compact,
  Office Activity Schedule,
  Any Number,
  Through: 12/31,
  For: AllDays,
  Until: 24:00,
  120.;

Schedule:Compact,
  Office Work Eff. Schedule,
  Fraction,
  Through: 12/31,
  For: AllDays,
  Until: 24:00,
  0.0;

Schedule:Compact,
  Office Clothing Schedule,
  Any Number,
  Through: 04/30,
  For: AllDays,
  Until: 24:00,
  1.0,
  Through: 09/30,
  For: AllDays,
  Until: 24:00,
  0.5,
  Through: 12/31,
  For: AllDays,
  Until: 24:00,
  1.0;

Material,
  F08 Metal surface,
  Smooth,
  0.0008,
  45.28,
  7824,
  500;

Material,
  I01 25mm insulation board,
  MediumRough,
  0.0254,
  0.03,
  43,
  1210;

Material,
  I02 50mm insulation board,
  MediumRough,
  0.0508,
  0.03,
  43,
  1210;

Material,
  G01a 19mm gypsum board,
  MediumSmooth,
  0.019,
  0.16,
  800,
  1090;

Material,
  M11 100mm lightweight concrete,
  MediumRough,
  0.1016,
  0.53,
  1280,
  840;

Material,
  F16 Acoustic tile,
  MediumSmooth,
  0.0191,
  0.06,
  368,
  590;

Material,
  M01 100mm brick,
  MediumRough,
  0.1016,
  0.89,
  1920,
  790;

Material,
  M15 200mm heavyweight concrete,
  MediumRough,
  0.2032,
  1.95,
  2240,
  900;

Material,
  M05 200mm concrete block,
  MediumRough,
  0.2032,
  1.11,
  800,
  920;

Material,
  G05 25mm wood,
  MediumSmooth,
  0.0254,
  0.15,
  608,
  1630;

Material:AirGap,
  F04 Wall air space resistance,
  0.15;

Material:AirGap,
  F05 Ceiling air space resistance,
  0.18;

WindowMaterial:Glazing,
  Clear 3mm,
  SpectralAverage,
  ,
  0.003,
  0.837,
  0.075,
  0.075,
  0.898,
  0.081,
  0.081,
  0,
  0.84,
  0.84,
  0.9;

WindowMaterial:Gas,
  Air 13mm,
  Air,
  0.0127;

Construction,
  Exterior Floor,
  I02 50mm insulation board,
  M15 200mm heavyweight concrete;

Construction,
  Interior Floor,
  F16 Acoustic tile,
  F05 Ceiling air space resistance,
  M11 100mm lightweight concrete;

Construction,
  Exterior Wall,
  M01 100mm brick,
  M15 200mm heavyweight concrete,
  I02 50mm insulation board,
  F04 Wall air space resistance,
  G01a 19mm gypsum board;

Construction,
  Interior Wall,
  G01a 19mm gypsum board,
  F04 Wall air space resistance,
  G01a 19mm gypsum board;

Construction,
  Exterior Roof,
  M11 100mm lightweight concrete,
  F05 Ceiling air space resistance,
  F16 Acoustic tile;

Construction,
  Interior Ceiling,
  M11 100mm lightweight concrete,
  F05 Ceiling air space resistance,
  F16 Acoustic tile;

Construction,
  Exterior Window,
  Clear 3mm,
  Air 13mm,
  Clear 3mm;

Construction,
  Interior Window,
  Clear 3mm;

Construction,
  Exterior Door,
  F08 Metal surface,
  I01 25mm insulation board;

Construction,
  Interior Door,
  G05 25mm wood;

GlobalGeometryRules,
  UpperLeftCorner,
  Counterclockwise,
  Relative;

HVACTemplate:Thermostat,
  Constant Setpoint Thermostat,
  ,
  21.111111111111086,
  ,
  23.333333333333314;

Output:VariableDictionary,
  IDF;

Output:Table:SummaryReports,
  AllSummary;

OutputControl:Table:Style,
  HTML,
  JtoKWH;

Output:Variable,
  *,
  Site Outdoor Air Drybulb Temperature,
  Hourly;

Output:Variable,
  *,
  Zone Mean Air Temperature,
  Hourly;

Output:Variable,
  *,
  Zone Ideal Loads Zone Total Heating Rate,
  Hourly;

Output:Variable,
  *,
  Zone Ideal Loads Zone Total Cooling Rate,
  Hourly;

Zone,
  L1_Zone_1,
  0.0,
  0.0,
  0.0,
  0.0,
  ,
  1;

Zone,
  L1_Zone_2,
  0.0,
  0.0,
  0.0,
  0.0,
  ,
  1;

Zone,
  L1_Zone_3,
  0.0,
  0.0,
  0.0,
  0.0,
  ,
  1;

Zone,
  L1_Zone_4,
  0.0,
  0.0,
  0.0,
  0.0,
  ,
  1;

Zone,
  L1_Zone_5,
  0.0,
  0.0,
  0.0,
  0.0,
  ,
  1;

Zone,
  L1_Zone_6,
  0.0,
  0.0,
  0.0,
  0.0,
  ,
  1;

Zone,
  L1_Zone_7,
  0.0,
  0.0,
  0.0,
  0.0,
  ,
  1;

Zone,
  L1_Zone_8,
  0.0,
  0.0,
  0.0,
  0.0,
  ,
  1;

Zone,
  L1_Zone_9,
  0.0,
  0.0,
  0.0,
  0.0,
  ,
  1;

Zone,
  L1_Zone_10,
  0.0,
  0.0,
  0.0,
  0.0,
  ,
  1;

Zone,
  L1_Zone_11,
  0.0,
  0.0,
  0.0,
  0.0,
  ,
  1;

Zone,
  L1_Zone_19,
  0.0,
  0.0,
  0.0,
  0.0,
  ,
  1;

Zone,
  L1_Zone_13,
  0.0,
  0.0,
  0.0,
  0.0,
  ,
  1;

Zone,
  L1_Zone_14,
  0.0,
  0.0,
  0.0,
  0.0,
  ,
  1;

Zone,
  L1_Zone_15,
  0.0,
  0.0,
  0.0,
  0.0,
  ,
  1;

Zone,
  L1_Zone_16,
  0.0,
  0.0,
  0.0,
  0.0,
  ,
  1;

Zone,
  L1_Zone_17,
  0.0,
  0.0,
  0.0,
  0.0,
  ,
  1;

Zone,
  L1_Zone_18,
  0.0,
  0.0,
  0.0,
  0.0,
  ,
  1;

Zone,
  L1_Zone_12,
  0.0,
  0.0,
  0.0,
  0.0,
  ,
  1;

Zone,
  L2_Zone_20,
  0.0,
  0.0,
  0.0,
  0.0,
  ,
  1;

Zone,
  L2_Zone_21,
  0.0,
  0.0,
  0.0,
  0.0,
  ,
  1;

Zone,
  L2_Zone_22,
  0.0,
  0.0,
  0.0,
  0.0,
  ,
  1;

Zone,
  L2_Zone_25,
  0.0,
  0.0,
  0.0,
  0.0,
  ,
  1;

Zone,
  L2_Zone_24,
  0.0,
  0.0,
  0.0,
  0.0,
  ,
  1;

Zone,
  L2_Zone_23,
  0.0,
  0.0,
  0.0,
  0.0,
  ,
  1;

Zone,
  L2_Zone_27,
  0.0,
  0.0,
  0.0,
  0.0,
  ,
  1;

Zone,
  L2_Zone_28,
  0.0,
  0.0,
  0.0,
  0.0,
  ,
  1;

Zone,
  L2_Zone_29,
  0.0,
  0.0,
  0.0,
  0.0,
  ,
  1;

Zone,
  L2_Zone_30,
  0.0,
  0.0,
  0.0,
  0.0,
  ,
  1;

Zone,
  L2_Zone_31,
  0.0,
  0.0,
  0.0,
  0.0,
  ,
  1;

Zone,
  L2_Zone_32,
  0.0,
  0.0,
  0.0,
  0.0,
  ,
  1;

Zone,
  L2_Zone_34,
  0.0,
  0.0,
  0.0,
  0.0,
  ,
  1;

Zone,
  L2_Zone_35,
  0.0,
  0.0,
  0.0,
  0.0,
  ,
  1;

Zone,
  L2_Zone_36,
  0.0,
  0.0,
  0.0,
  0.0,
  ,
  1;

Zone,
  L2_Zone_37,
  0.0,
  0.0,
  0.0,
  0.0,
  ,
  1;

Zone,
  L2_Zone_38,
  0.0,
  0.0,
  0.0,
  0.0,
  ,
  1;

Zone,
  L2_Zone_39,
  0.0,
  0.0,
  0.0,
  0.0,
  ,
  1;

Zone,
  L2_Zone_40,
  0.0,
  0.0,
  0.0,
  0.0,
  ,
  1;

Zone,
  L2_Zone_42,
  0.0,
  0.0,
  0.0,
  0.0,
  ,
  1;

Zone,
  L2_Zone_43,
  0.0,
  0.0,
  0.0,
  0.0,
  ,
  1;

Zone,
  L2_Zone_44,
  0.0,
  0.0,
  0.0,
  0.0,
  ,
  1;

Zone,
  L3_Zone_45,
  0.0,
  0.0,
  0.0,
  0.0,
  ,
  1;

Zone,
  L3_Zone_46,
  0.0,
  0.0,
  0.0,
  0.0,
  ,
  1;

Zone,
  L3_Zone_47,
  0.0,
  0.0,
  0.0,
  0.0,
  ,
  1;

Zone,
  L3_Zone_49,
  0.0,
  0.0,
  0.0,
  0.0,
  ,
  1;

Zone,
  L3_Zone_50,
  0.0,
  0.0,
  0.0,
  0.0,
  ,
  1;

Zone,
  L3_Zone_51,
  0.0,
  0.0,
  0.0,
  0.0,
  ,
  1;

Zone,
  L3_Zone_52,
  0.0,
  0.0,
  0.0,
  0.0,
  ,
  1;

Zone,
  L3_Zone_53,
  0.0,
  0.0,
  0.0,
  0.0,
  ,
  1;

Zone,
  L3_Zone_54,
  0.0,
  0.0,
  0.0,
  0.0,
  ,
  1;

Zone,
  L3_Zone_55,
  0.0,
  0.0,
  0.0,
  0.0,
  ,
  1;

Zone,
  L3_Zone_56,
  0.0,
  0.0,
  0.0,
  0.0,
  ,
  1;

Zone,
  L3_Zone_57,
  0.0,
  0.0,
  0.0,
  0.0,
  ,
  1;

Zone,
  L4_Zone_58,
  0.0,
  0.0,
  0.0,
  0.0,
  ,
  1;

Zone,
  L4_Zone_60,
  0.0,
  0.0,
  0.0,
  0.0,
  ,
  1;

Zone,
  L4_Zone_61,
  0.0,
  0.0,
  0.0,
  0.0,
  ,
  1;

Zone,
  L2_Zone_26,
  0.0,
  0.0,
  0.0,
  0.0,
  ,
  1;

BuildingSurface:Detailed,
  L1_Zone_1_Floor_1,
  Floor,
  Exterior Floor,
  L1_Zone_1,
  ,
  Ground,
  ,
  NoSun,
  NoWind,
  ,
  4,
  -32.9942,
  12.9338,
  0.0000,
  -32.9942,
  10.0038,
  0.0000,
  -34.4932,
  10.0038,
  0.0000,
  -34.4932,
  12.9338,
  0.0000;

BuildingSurface:Detailed,
  L1_Zone_1_Floor_2,
  Floor,
  Exterior Floor,
  L1_Zone_1,
  ,
  Ground,
  ,
  NoSun,
  NoWind,
  ,
  4,
  -31.2942,
  14.5728,
  0.0000,
  -31.2942,
  12.9338,
  0.0000,
  -34.4932,
  12.9338,
  0.0000,
  -34.4932,
  14.5728,
  0.0000;

BuildingSurface:Detailed,
  L1_Zone_1_Ceiling_1,
  Ceiling,
  BIM2BEM_int_slab_ceiling,
  L1_Zone_1,
  ,
  Surface,
  L2_Zone_20_Floor_3,
  NoSun,
  NoWind,
  ,
  4,
  -34.4932,
  12.9338,
  6.8500,
  -34.4932,
  10.0038,
  6.8500,
  -32.9942,
  10.0038,
  6.8500,
  -32.9942,
  12.9338,
  6.8500;

BuildingSurface:Detailed,
  L1_Zone_1_Ceiling_2,
  Ceiling,
  BIM2BEM_int_slab_ceiling,
  L1_Zone_1,
  ,
  Surface,
  L2_Zone_20_Floor_4,
  NoSun,
  NoWind,
  ,
  4,
  -34.4932,
  14.5728,
  6.8500,
  -34.4932,
  12.9338,
  6.8500,
  -31.2942,
  12.9338,
  6.8500,
  -31.2942,
  14.5728,
  6.8500;

BuildingSurface:Detailed,
  L1_Zone_1_Wall_1,
  Wall,
  BIM2BEM_nonres_ext_wall,
  L1_Zone_1,
  ,
  Outdoors,
  ,
  SunExposed,
  WindExposed,
  ,
  4,
  -31.2942,
  14.5728,
  6.8500,
  -31.2942,
  14.5728,
  0.0000,
  -34.4932,
  14.5728,
  0.0000,
  -34.4932,
  14.5728,
  6.8500;

BuildingSurface:Detailed,
  L1_Zone_1_Wall_2,
  Wall,
  BIM2BEM_nonres_ext_wall,
  L1_Zone_1,
  ,
  Outdoors,
  ,
  SunExposed,
  WindExposed,
  ,
  4,
  -34.4932,
  14.5728,
  6.8500,
  -34.4932,
  14.5728,
  0.0000,
  -34.4932,
  10.0038,
  0.0000,
  -34.4932,
  10.0038,
  6.8500;

BuildingSurface:Detailed,
  L1_Zone_1_Wall_3,
  Wall,
  BIM2BEM_Interior_Wall,
  L1_Zone_1,
  ,
  Surface,
  L1_Zone_2_Wall_7,
  NoSun,
  NoWind,
  ,
  4,
  -34.4932,
  10.0038,
  6.8500,
  -34.4932,
  10.0038,
  0.0000,
  -32.9942,
  10.0038,
  0.0000,
  -32.9942,
  10.0038,
  6.8500;

BuildingSurface:Detailed,
  L1_Zone_1_Wall_4,
  Wall,
  BIM2BEM_Interior_Wall,
  L1_Zone_1,
  ,
  Surface,
  L1_Zone_2_Wall_6,
  NoSun,
  NoWind,
  ,
  4,
  -32.9942,
  10.0038,
  6.8500,
  -32.9942,
  10.0038,
  0.0000,
  -32.9942,
  12.8328,
  0.0000,
  -32.9942,
  12.8328,
  6.8500;

BuildingSurface:Detailed,
  L1_Zone_1_Wall_5,
  Wall,
  BIM2BEM_Interior_Wall,
  L1_Zone_1,
  ,
  Adiabatic,
  ,
  NoSun,
  NoWind,
  ,
  4,
  -32.9942,
  12.8328,
  6.8500,
  -32.9942,
  12.8328,
  0.0000,
  -32.9942,
  12.9338,
  0.0000,
  -32.9942,
  12.9338,
  6.8500;

BuildingSurface:Detailed,
  L1_Zone_1_Wall_6,
  Wall,
  BIM2BEM_Interior_Wall,
  L1_Zone_1,
  ,
  Adiabatic,
  ,
  NoSun,
  NoWind,
  ,
  4,
  -32.9942,
  12.9338,
  6.8500,
  -32.9942,
  12.9338,
  0.0000,
  -32.8932,
  12.9338,
  0.0000,
  -32.8932,
  12.9338,
  6.8500;

BuildingSurface:Detailed,
  L1_Zone_1_Wall_7,
  Wall,
  BIM2BEM_Interior_Wall,
  L1_Zone_1,
  ,
  Surface,
  L1_Zone_2_Wall_4,
  NoSun,
  NoWind,
  ,
  4,
  -32.8932,
  12.9338,
  6.8500,
  -32.8932,
  12.9338,
  0.0000,
  -31.2942,
  12.9338,
  0.0000,
  -31.2942,
  12.9338,
  6.8500;

BuildingSurface:Detailed,
  L1_Zone_1_Wall_8,
  Wall,
  BIM2BEM_Interior_Wall,
  L1_Zone_1,
  ,
  Surface,
  L1_Zone_3_Wall_4,
  NoSun,
  NoWind,
  ,
  4,
  -31.2942,
  12.9338,
  6.8500,
  -31.2942,
  12.9338,
  0.0000,
  -31.2942,
  14.5728,
  0.0000,
  -31.2942,
  14.5728,
  6.8500;

BuildingSurface:Detailed,
  L1_Zone_2_Floor_1,
  Floor,
  Exterior Floor,
  L1_Zone_2,
  ,
  Ground,
  ,
  NoSun,
  NoWind,
  ,
  4,
  -31.2942,
  9.9028,
  0.0000,
  -31.2942,
  8.1738,
  0.0000,
  -34.4932,
  8.1738,
  0.0000,
  -34.4932,
  9.9028,
  0.0000;

BuildingSurface:Detailed,
  L1_Zone_2_Floor_2,
  Floor,
  Exterior Floor,
  L1_Zone_2,
  ,
  Ground,
  ,
  NoSun,
  NoWind,
  ,
  4,
  -31.2942,
  12.8328,
  0.0000,
  -31.2942,
  9.9028,
  0.0000,
  -32.8932,
  9.9028,
  0.0000,
  -32.8932,
  12.8328,
  0.0000;

BuildingSurface:Detailed,
  L1_Zone_2_Ceiling_1,
  Ceiling,
  BIM2BEM_int_slab_ceiling,
  L1_Zone_2,
  ,
  Surface,
  L2_Zone_20_Floor_1,
  NoSun,
  NoWind,
  ,
  4,
  -34.4932,
  9.9028,
  6.8500,
  -34.4932,
  8.1810,
  6.8500,
  -31.2942,
  8.1810,
  6.8500,
  -31.2942,
  9.9028,
  6.8500;

BuildingSurface:Detailed,
  L1_Zone_2_Ceiling_2,
  Ceiling,
  BIM2BEM_int_slab_ceiling,
  L1_Zone_2,
  ,
  Surface,
  L2_Zone_20_Floor_2,
  NoSun,
  NoWind,
  ,
  4,
  -32.8932,
  12.8328,
  6.8500,
  -32.8932,
  9.9028,
  6.8500,
  -31.2942,
  9.9028,
  6.8500,
  -31.2942,
  12.8328,
  6.8500;

BuildingSurface:Detailed,
  L1_Zone_2_Roof_1,
  Roof,
  Interior Ceiling,
  L1_Zone_2,
  ,
  Adiabatic,
  ,
  NoSun,
  NoWind,
  ,
  4,
  -34.4932,
  8.1810,
  6.8500,
  -34.4932,
  8.1738,
  6.8500,
  -31.2942,
  8.1738,
  6.8500,
  -31.2942,
  8.1810,
  6.8500;

BuildingSurface:Detailed,
  L1_Zone_2_Wall_1,
  Wall,
  BIM2BEM_nonres_ext_wall,
  L1_Zone_2,
  ,
  Outdoors,
  ,
  SunExposed,
  WindExposed,
  ,
  4,
  -34.4932,
  9.9028,
  6.8500,
  -34.4932,
  9.9028,
  0.0000,
  -34.4932,
  8.1738,
  0.0000,
  -34.4932,
  8.1738,
  6.8500;

BuildingSurface:Detailed,
  L1_Zone_2_Wall_2,
  Wall,
  BIM2BEM_Interior_Wall,
  L1_Zone_2,
  ,
  Surface,
  L1_Zone_4_Wall_4,
  NoSun,
  NoWind,
  ,
  4,
  -34.4932,
  8.1738,
  6.8500,
  -34.4932,
  8.1738,
  0.0000,
  -31.2942,
  8.1738,
  0.0000,
  -31.2942,
  8.1738,
  6.8500;

BuildingSurface:Detailed,
  L1_Zone_2_Wall_3,
  Wall,
  BIM2BEM_Interior_Wall,
  L1_Zone_2,
  ,
  Surface,
  L1_Zone_3_Wall_2,
  NoSun,
  NoWind,
  ,
  4,
  -31.2942,
  8.1738,
  6.8500,
  -31.2942,
  8.1738,
  0.0000,
  -31.2942,
  12.8328,
  0.0000,
  -31.2942,
  12.8328,
  6.8500;

BuildingSurface:Detailed,
  L1_Zone_2_Wall_4,
  Wall,
  BIM2BEM_Interior_Wall,
  L1_Zone_2,
  ,
  Surface,
  L1_Zone_1_Wall_7,
  NoSun,
  NoWind,
  ,
  4,
  -31.2942,
  12.8328,
  6.8500,
  -31.2942,
  12.8328,
  0.0000,
  -32.8932,
  12.8328,
  0.0000,
  -32.8932,
  12.8328,
  6.8500;

BuildingSurface:Detailed,
  L1_Zone_2_Wall_5,
  Wall,
  BIM2BEM_Interior_Wall,
  L1_Zone_2,
  ,
  Adiabatic,
  ,
  NoSun,
  NoWind,
  ,
  4,
  -32.8932,
  10.0038,
  6.8500,
  -32.8932,
  10.0038,
  0.0000,
  -32.8932,
  9.9028,
  0.0000,
  -32.8932,
  9.9028,
  6.8500;

BuildingSurface:Detailed,
  L1_Zone_2_Wall_6,
  Wall,
  BIM2BEM_Interior_Wall,
  L1_Zone_2,
  ,
  Surface,
  L1_Zone_1_Wall_4,
  NoSun,
  NoWind,
  ,
  4,
  -32.8932,
  12.8328,
  6.8500,
  -32.8932,
  12.8328,
  0.0000,
  -32.8932,
  10.0038,
  0.0000,
  -32.8932,
  10.0038,
  6.8500;

BuildingSurface:Detailed,
  L1_Zone_2_Wall_7,
  Wall,
  BIM2BEM_Interior_Wall,
  L1_Zone_2,
  ,
  Surface,
  L1_Zone_1_Wall_3,
  NoSun,
  NoWind,
  ,
  4,
  -32.9942,
  9.9028,
  6.8500,
  -32.9942,
  9.9028,
  0.0000,
  -34.4932,
  9.9028,
  0.0000,
  -34.4932,
  9.9028,
  6.8500;

BuildingSurface:Detailed,
  L1_Zone_2_Wall_8,
  Wall,
  BIM2BEM_Interior_Wall,
  L1_Zone_2,
  ,
  Adiabatic,
  ,
  NoSun,
  NoWind,
  ,
  4,
  -32.8932,
  9.9028,
  6.8500,
  -32.8932,
  9.9028,
  0.0000,
  -32.9942,
  9.9028,
  0.0000,
  -32.9942,
  9.9028,
  6.8500;

BuildingSurface:Detailed,
  L1_Zone_3_Floor_1,
  Floor,
  Exterior Floor,
  L1_Zone_3,
  ,
  Ground,
  ,
  NoSun,
  NoWind,
  ,
  4,
  -27.9942,
  14.5728,
  0.0000,
  -27.9942,
  8.1738,
  0.0000,
  -31.1932,
  8.1738,
  0.0000,
  -31.1932,
  14.5728,
  0.0000;

BuildingSurface:Detailed,
  L1_Zone_3_Ceiling_1,
  Ceiling,
  BIM2BEM_int_slab_ceiling,
  L1_Zone_3,
  ,
  Surface,
  L2_Zone_21_Floor_5,
  NoSun,
  NoWind,
  ,
  4,
  -31.1863,
  14.5728,
  6.8500,
  -31.1863,
  8.1738,
  6.8500,
  -27.9942,
  8.1738,
  6.8500,
  -27.9942,
  14.5728,
  6.8500;

BuildingSurface:Detailed,
  L1_Zone_3_Roof_1,
  Roof,
  Interior Ceiling,
  L1_Zone_3,
  ,
  Adiabatic,
  ,
  NoSun,
  NoWind,
  ,
  4,
  -31.1932,
  14.5728,
  6.8500,
  -31.1932,
  8.1738,
  6.8500,
  -31.1863,
  8.1738,
  6.8500,
  -31.1863,
  14.5728,
  6.8500;

BuildingSurface:Detailed,
  L1_Zone_3_Wall_1,
  Wall,
  BIM2BEM_nonres_ext_wall,
  L1_Zone_3,
  ,
  Outdoors,
  ,
  SunExposed,
  WindExposed,
  ,
  4,
  -27.9942,
  14.5728,
  6.8500,
  -27.9942,
  14.5728,
  0.0000,
  -31.1932,
  14.5728,
  0.0000,
  -31.1932,
  14.5728,
  6.8500;

BuildingSurface:Detailed,
  L1_Zone_3_Wall_2,
  Wall,
  BIM2BEM_Interior_Wall,
  L1_Zone_3,
  ,
  Surface,
  L1_Zone_2_Wall_3,
  NoSun,
  NoWind,
  ,
  4,
  -31.1932,
  12.8328,
  6.8500,
  -31.1932,
  12.8328,
  0.0000,
  -31.1932,
  8.1738,
  0.0000,
  -31.1932,
  8.1738,
  6.8500;

BuildingSurface:Detailed,
  L1_Zone_3_Wall_3,
  Wall,
  BIM2BEM_Interior_Wall,
  L1_Zone_3,
  ,
  Adiabatic,
  ,
  NoSun,
  NoWind,
  ,
  4,
  -31.1932,
  12.9338,
  6.8500,
  -31.1932,
  12.9338,
  0.0000,
  -31.1932,
  12.8328,
  0.0000,
  -31.1932,
  12.8328,
  6.8500;

BuildingSurface:Detailed,
  L1_Zone_3_Wall_4,
  Wall,
  BIM2BEM_Interior_Wall,
  L1_Zone_3,
  ,
  Surface,
  L1_Zone_1_Wall_8,
  NoSun,
  NoWind,
  ,
  4,
  -31.1932,
  14.5728,
  6.8500,
  -31.1932,
  14.5728,
  0.0000,
  -31.1932,
  12.9338,
  0.0000,
  -31.1932,
  12.9338,
  6.8500;

BuildingSurface:Detailed,
  L1_Zone_3_Wall_5,
  Wall,
  BIM2BEM_Interior_Wall,
  L1_Zone_3,
  ,
  Surface,
  L1_Zone_4_Wall_6,
  NoSun,
  NoWind,
  ,
  4,
  -31.1932,
  8.1738,
  6.8500,
  -31.1932,
  8.1738,
  0.0000,
  -27.9942,
  8.1738,
  0.0000,
  -27.9942,
  8.1738,
  6.8500;

BuildingSurface:Detailed,
  L1_Zone_3_Wall_6,
  Wall,
  BIM2BEM_Interior_Wall,
  L1_Zone_3,
  ,
  Surface,
  L1_Zone_8_Wall_3,
  NoSun,
  NoWind,
  ,
  4,
  -27.9942,
  8.1738,
  6.8500,
  -27.9942,
  8.1738,
  0.0000,
  -27.9942,
  14.5728,
  0.0000,
  -27.9942,
  14.5728,
  6.8500;

BuildingSurface:Detailed,
  L1_Zone_4_Floor_1,
  Floor,
  Exterior Floor,
  L1_Zone_4,
  ,
  Ground,
  ,
  NoSun,
  NoWind,
  ,
  4,
  -27.9942,
  8.0728,
  0.0000,
  -27.9942,
  3.6737,
  0.0000,
  -34.4932,
  3.6737,
  0.0000,
  -34.4932,
  8.0728,
  0.0000;

BuildingSurface:Detailed,
  L1_Zone_4_Ceiling_1,
  Ceiling,
  BIM2BEM_int_slab_ceiling,
  L1_Zone_4,
  ,
  Surface,
  L2_Zone_21_Floor_4,
  NoSun,
  NoWind,
  ,
  4,
  -34.4932,
  8.0728,
  6.8500,
  -34.4932,
  3.6737,
  6.8500,
  -27.9942,
  3.6737,
  6.8500,
  -27.9942,
  8.0728,
  6.8500;

BuildingSurface:Detailed,
  L1_Zone_4_Wall_1,
  Wall,
  BIM2BEM_nonres_ext_wall,
  L1_Zone_4,
  ,
  Outdoors,
  ,
  SunExposed,
  WindExposed,
  ,
  4,
  -34.4932,
  8.0728,
  6.8500,
  -34.4932,
  8.0728,
  0.0000,
  -34.4932,
  3.6737,
  0.0000,
  -34.4932,
  3.6737,
  6.8500;

BuildingSurface:Detailed,
  L1_Zone_4_Wall_2,
  Wall,
  BIM2BEM_Interior_Wall,
  L1_Zone_4,
  ,
  Surface,
  L1_Zone_5_Wall_4,
  NoSun,
  NoWind,
  ,
  4,
  -34.4932,
  3.6737,
  6.8500,
  -34.4932,
  3.6737,
  0.0000,
  -27.9942,
  3.6737,
  0.0000,
  -27.9942,
  3.6737,
  6.8500;

BuildingSurface:Detailed,
  L1_Zone_4_Wall_3,
  Wall,
  BIM2BEM_Interior_Wall,
  L1_Zone_4,
  ,
  Surface,
  L1_Zone_8_Wall_5,
  NoSun,
  NoWind,
  ,
  4,
  -27.9942,
  3.6737,
  6.8500,
  -27.9942,
  3.6737,
  0.0000,
  -27.9942,
  8.0728,
  0.0000,
  -27.9942,
  8.0728,
  6.8500;

BuildingSurface:Detailed,
  L1_Zone_4_Wall_4,
  Wall,
  BIM2BEM_Interior_Wall,
  L1_Zone_4,
  ,
  Surface,
  L1_Zone_2_Wall_2,
  NoSun,
  NoWind,
  ,
  4,
  -31.2942,
  8.0728,
  6.8500,
  -31.2942,
  8.0728,
  0.0000,
  -34.4932,
  8.0728,
  0.0000,
  -34.4932,
  8.0728,
  6.8500;

BuildingSurface:Detailed,
  L1_Zone_4_Wall_5,
  Wall,
  BIM2BEM_Interior_Wall,
  L1_Zone_4,
  ,
  Adiabatic,
  ,
  NoSun,
  NoWind,
  ,
  4,
  -31.1932,
  8.0728,
  6.8500,
  -31.1932,
  8.0728,
  0.0000,
  -31.2942,
  8.0728,
  0.0000,
  -31.2942,
  8.0728,
  6.8500;

BuildingSurface:Detailed,
  L1_Zone_4_Wall_6,
  Wall,
  BIM2BEM_Interior_Wall,
  L1_Zone_4,
  ,
  Surface,
  L1_Zone_3_Wall_5,
  NoSun,
  NoWind,
  ,
  4,
  -27.9942,
  8.0728,
  6.8500,
  -27.9942,
  8.0728,
  0.0000,
  -31.1932,
  8.0728,
  0.0000,
  -31.1932,
  8.0728,
  6.8500;

BuildingSurface:Detailed,
  L1_Zone_5_Floor_1,
  Floor,
  Exterior Floor,
  L1_Zone_5,
  ,
  Ground,
  ,
  NoSun,
  NoWind,
  ,
  4,
  -27.9942,
  3.5727,
  0.0000,
  -27.9942,
  1.6737,
  0.0000,
  -34.4932,
  1.6737,
  0.0000,
  -34.4932,
  3.5727,
  0.0000;

BuildingSurface:Detailed,
  L1_Zone_5_Ceiling_1,
  Ceiling,
  BIM2BEM_int_slab_ceiling,
  L1_Zone_5,
  ,
  Surface,
  L2_Zone_21_Floor_3,
  NoSun,
  NoWind,
  ,
  4,
  -34.4932,
  3.5727,
  6.8500,
  -34.4932,
  1.6737,
  6.8500,
  -27.9942,
  1.6737,
  6.8500,
  -27.9942,
  3.5727,
  6.8500;

BuildingSurface:Detailed,
  L1_Zone_5_Wall_1,
  Wall,
  BIM2BEM_nonres_ext_wall,
  L1_Zone_5,
  ,
  Outdoors,
  ,
  SunExposed,
  WindExposed,
  ,
  4,
  -34.4932,
  3.5727,
  6.8500,
  -34.4932,
  3.5727,
  0.0000,
  -34.4932,
  1.6737,
  0.0000,
  -34.4932,
  1.6737,
  6.8500;

BuildingSurface:Detailed,
  L1_Zone_5_Wall_2,
  Wall,
  BIM2BEM_Interior_Wall,
  L1_Zone_5,
  ,
  Surface,
  L1_Zone_6_Wall_4,
  NoSun,
  NoWind,
  ,
  4,
  -34.4932,
  1.6737,
  6.8500,
  -34.4932,
  1.6737,
  0.0000,
  -27.9942,
  1.6737,
  0.0000,
  -27.9942,
  1.6737,
  6.8500;

BuildingSurface:Detailed,
  L1_Zone_5_Wall_3,
  Wall,
  BIM2BEM_Interior_Wall,
  L1_Zone_5,
  ,
  Surface,
  L1_Zone_8_Wall_8,
  NoSun,
  NoWind,
  ,
  4,
  -27.9942,
  1.6737,
  6.8500,
  -27.9942,
  1.6737,
  0.0000,
  -27.9942,
  3.5727,
  0.0000,
  -27.9942,
  3.5727,
  6.8500;

BuildingSurface:Detailed,
  L1_Zone_5_Wall_4,
  Wall,
  BIM2BEM_Interior_Wall,
  L1_Zone_5,
  ,
  Surface,
  L1_Zone_4_Wall_2,
  NoSun,
  NoWind,
  ,
  4,
  -27.9942,
  3.5727,
  6.8500,
  -27.9942,
  3.5727,
  0.0000,
  -34.4932,
  3.5727,
  0.0000,
  -34.4932,
  3.5727,
  6.8500;

BuildingSurface:Detailed,
  L1_Zone_6_Floor_1,
  Floor,
  Exterior Floor,
  L1_Zone_6,
  ,
  Ground,
  ,
  NoSun,
  NoWind,
  ,
  4,
  -27.9942,
  1.5727,
  0.0000,
  -27.9942,
  -1.8263,
  0.0000,
  -34.4932,
  -1.8263,
  0.0000,
  -34.4932,
  1.5727,
  0.0000;

BuildingSurface:Detailed,
  L1_Zone_6_Ceiling_1,
  Ceiling,
  BIM2BEM_int_slab_ceiling,
  L1_Zone_6,
  ,
  Surface,
  L2_Zone_21_Floor_2,
  NoSun,
  NoWind,
  ,
  4,
  -34.4932,
  1.5727,
  6.8500,
  -34.4932,
  -1.8263,
  6.8500,
  -27.9942,
  -1.8263,
  6.8500,
  -27.9942,
  1.5727,
  6.8500;

BuildingSurface:Detailed,
  L1_Zone_6_Wall_1,
  Wall,
  BIM2BEM_nonres_ext_wall,
  L1_Zone_6,
  ,
  Outdoors,
  ,
  SunExposed,
  WindExposed,
  ,
  4,
  -34.4932,
  1.5727,
  6.8500,
  -34.4932,
  1.5727,
  0.0000,
  -34.4932,
  -1.8263,
  0.0000,
  -34.4932,
  -1.8263,
  6.8500;

BuildingSurface:Detailed,
  L1_Zone_6_Wall_2,
  Wall,
  BIM2BEM_Interior_Wall,
  L1_Zone_6,
  ,
  Surface,
  L1_Zone_7_Wall_3,
  NoSun,
  NoWind,
  ,
  4,
  -34.4932,
  -1.8263,
  6.8500,
  -34.4932,
  -1.8263,
  0.0000,
  -27.9942,
  -1.8263,
  0.0000,
  -27.9942,
  -1.8263,
  6.8500;

BuildingSurface:Detailed,
  L1_Zone_6_Wall_3,
  Wall,
  BIM2BEM_Interior_Wall,
  L1_Zone_6,
  ,
  Surface,
  L1_Zone_8_Wall_11,
  NoSun,
  NoWind,
  ,
  4,
  -27.9942,
  -1.8263,
  6.8500,
  -27.9942,
  -1.8263,
  0.0000,
  -27.9942,
  1.5727,
  0.0000,
  -27.9942,
  1.5727,
  6.8500;

BuildingSurface:Detailed,
  L1_Zone_6_Wall_4,
  Wall,
  BIM2BEM_Interior_Wall,
  L1_Zone_6,
  ,
  Surface,
  L1_Zone_5_Wall_2,
  NoSun,
  NoWind,
  ,
  4,
  -27.9942,
  1.5727,
  6.8500,
  -27.9942,
  1.5727,
  0.0000,
  -34.4932,
  1.5727,
  0.0000,
  -34.4932,
  1.5727,
  6.8500;

BuildingSurface:Detailed,
  L1_Zone_7_Floor_1,
  Floor,
  Exterior Floor,
  L1_Zone_7,
  ,
  Ground,
  ,
  NoSun,
  NoWind,
  ,
  4,
  -27.9942,
  -1.9273,
  0.0000,
  -27.9942,
  -5.8263,
  0.0000,
  -34.4932,
  -5.8263,
  0.0000,
  -34.4932,
  -1.9273,
  0.0000;

BuildingSurface:Detailed,
  L1_Zone_7_Ceiling_1,
  Ceiling,
  BIM2BEM_int_slab_ceiling,
  L1_Zone_7,
  ,
  Surface,
  L2_Zone_21_Floor_1,
  NoSun,
  NoWind,
  ,
  4,
  -34.4932,
  -1.9273,
  6.8500,
  -34.4932,
  -5.8263,
  6.8500,
  -27.9942,
  -5.8263,
  6.8500,
  -27.9942,
  -1.9273,
  6.8500;

BuildingSurface:Detailed,
  L1_Zone_7_Wall_1,
  Wall,
  BIM2BEM_nonres_ext_wall,
  L1_Zone_7,
  ,
  Outdoors,
  ,
  SunExposed,
  WindExposed,
  ,
  4,
  -34.4932,
  -5.8263,
  6.8500,
  -34.4932,
  -5.8263,
  0.0000,
  -27.9942,
  -5.8263,
  0.0000,
  -27.9942,
  -5.8263,
  6.8500;

BuildingSurface:Detailed,
  L1_Zone_7_Wall_2,
  Wall,
  BIM2BEM_Interior_Wall,
  L1_Zone_7,
  ,
  Surface,
  L1_Zone_8_Wall_13,
  NoSun,
  NoWind,
  ,
  4,
  -27.9942,
  -5.8263,
  6.8500,
  -27.9942,
  -5.8263,
  0.0000,
  -27.9942,
  -1.9273,
  0.0000,
  -27.9942,
  -1.9273,
  6.8500;

BuildingSurface:Detailed,
  L1_Zone_7_Wall_3,
  Wall,
  BIM2BEM_Interior_Wall,
  L1_Zone_7,
  ,
  Surface,
  L1_Zone_6_Wall_2,
  NoSun,
  NoWind,
  ,
  4,
  -27.9942,
  -1.9273,
  6.8500,
  -27.9942,
  -1.9273,
  0.0000,
  -34.4932,
  -1.9273,
  0.0000,
  -34.4932,
  -1.9273,
  6.8500;

BuildingSurface:Detailed,
  L1_Zone_7_Wall_4,
  Wall,
  BIM2BEM_nonres_ext_wall,
  L1_Zone_7,
  ,
  Outdoors,
  ,
  SunExposed,
  WindExposed,
  ,
  4,
  -34.4932,
  -1.9273,
  6.8500,
  -34.4932,
  -1.9273,
  0.0000,
  -34.4932,
  -5.8263,
  0.0000,
  -34.4932,
  -5.8263,
  6.8500;

BuildingSurface:Detailed,
  L1_Zone_8_Floor_1,
  Floor,
  Exterior Floor,
  L1_Zone_8,
  ,
  Ground,
  ,
  NoSun,
  NoWind,
  ,
  4,
  -9.9944,
  14.5728,
  0.0000,
  -9.9944,
  4.9728,
  0.0000,
  -27.8932,
  4.9728,
  0.0000,
  -27.8932,
  14.5728,
  0.0000;

BuildingSurface:Detailed,
  L1_Zone_8_Floor_2,
  Floor,
  Exterior Floor,
  L1_Zone_8,
  ,
  Ground,
  ,
  NoSun,
  NoWind,
  ,
  4,
  2.0058,
  -0.8262,
  0.0000,
  2.0058,
  -5.8263,
  0.0000,
  -27.8932,
  -5.8263,
  0.0000,
  -27.8932,
  -0.8262,
  0.0000;

BuildingSurface:Detailed,
  L1_Zone_8_Floor_3,
  Floor,
  Exterior Floor,
  L1_Zone_8,
  ,
  Ground,
  ,
  NoSun,
  NoWind,
  ,
  4,
  7.4058,
  4.9728,
  0.0000,
  7.4058,
  -0.8262,
  0.0000,
  -27.8932,
  -0.8262,
  0.0000,
  -27.8932,
  4.9728,
  0.0000;

BuildingSurface:Detailed,
  L1_Zone_8_Ceiling_1,
  Ceiling,
  BIM2BEM_int_slab_ceiling,
  L1_Zone_8,
  ,
  Surface,
  L2_Zone_21_Floor_6,
  NoSun,
  NoWind,
  ,
  4,
  -27.8932,
  14.5728,
  6.8500,
  -27.8932,
  4.9728,
  6.8500,
  -9.9944,
  4.9728,
  6.8500,
  -9.9944,
  14.5728,
  6.8500;

BuildingSurface:Detailed,
  L1_Zone_8_Ceiling_2,
  Ceiling,
  BIM2BEM_int_slab_ceiling,
  L1_Zone_8,
  ,
  Surface,
  L2_Zone_21_Floor_7,
  NoSun,
  NoWind,
  ,
  4,
  -27.8932,
  4.9728,
  6.8500,
  -27.8932,
  -5.8263,
  6.8500,
  -4.5873,
  -5.8263,
  6.8500,
  -4.5873,
  4.9728,
  6.8500;

BuildingSurface:Detailed,
  L1_Zone_8_Ceiling_3,
  Ceiling,
  BIM2BEM_int_slab_ceiling,
  L1_Zone_8,
  ,
  Surface,
  L2_Zone_25_Floor_1,
  NoSun,
  NoWind,
  ,
  4,
  -4.4863,
  4.9728,
  6.8500,
  -4.4863,
  -5.8263,
  6.8500,
  2.0058,
  -5.8263,
  6.8500,
  2.0058,
  4.9728,
  6.8500;

BuildingSurface:Detailed,
  L1_Zone_8_Ceiling_4,
  Ceiling,
  BIM2BEM_int_slab_ceiling,
  L1_Zone_8,
  ,
  Surface,
  L2_Zone_28_Floor_1,
  NoSun,
  NoWind,
  ,
  4,
  2.1068,
  4.9728,
  6.8500,
  2.1068,
  -0.8262,
  6.8500,
  7.4058,
  -0.8262,
  6.8500,
  7.4058,
  4.9728,
  6.8500;

BuildingSurface:Detailed,
  L1_Zone_8_Roof_1,
  Roof,
  Interior Ceiling,
  L1_Zone_8,
  ,
  Adiabatic,
  ,
  NoSun,
  NoWind,
  ,
  4,
  -4.5873,
  4.9728,
  6.8500,
  -4.5873,
  -5.8263,
  6.8500,
  -4.4863,
  -5.8263,
  6.8500,
  -4.4863,
  4.9728,
  6.8500;

BuildingSurface:Detailed,
  L1_Zone_8_Roof_2,
  Roof,
  Interior Ceiling,
  L1_Zone_8,
  ,
  Adiabatic,
  ,
  NoSun,
  NoWind,
  ,
  4,
  2.0058,
  4.9728,
  6.8500,
  2.0058,
  -0.8262,
  6.8500,
  2.1068,
  -0.8262,
  6.8500,
  2.1068,
  4.9728,
  6.8500;

BuildingSurface:Detailed,
  L1_Zone_8_Wall_1,
  Wall,
  BIM2BEM_nonres_ext_wall,
  L1_Zone_8,
  ,
  Outdoors,
  ,
  SunExposed,
  WindExposed,
  ,
  4,
  -9.9944,
  14.5728,
  6.8500,
  -9.9944,
  14.5728,
  0.0000,
  -27.8932,
  14.5728,
  0.0000,
  -27.8932,
  14.5728,
  6.8500;

BuildingSurface:Detailed,
  L1_Zone_8_Wall_2,
  Wall,
  BIM2BEM_Interior_Wall,
  L1_Zone_8,
  ,
  Adiabatic,
  ,
  NoSun,
  NoWind,
  ,
  4,
  -27.8932,
  8.1738,
  6.8500,
  -27.8932,
  8.1738,
  0.0000,
  -27.8932,
  8.1233,
  0.0000,
  -27.8932,
  8.1233,
  6.8500;

BuildingSurface:Detailed,
  L1_Zone_8_Wall_3,
  Wall,
  BIM2BEM_Interior_Wall,
  L1_Zone_8,
  ,
  Surface,
  L1_Zone_3_Wall_6,
  NoSun,
  NoWind,
  ,
  4,
  -27.8932,
  14.5728,
  6.8500,
  -27.8932,
  14.5728,
  0.0000,
  -27.8932,
  8.1738,
  0.0000,
  -27.8932,
  8.1738,
  6.8500;

BuildingSurface:Detailed,
  L1_Zone_8_Wall_4,
  Wall,
  BIM2BEM_Interior_Wall,
  L1_Zone_8,
  ,
  Adiabatic,
  ,
  NoSun,
  NoWind,
  ,
  4,
  -27.8932,
  3.6737,
  6.8500,
  -27.8932,
  3.6737,
  0.0000,
  -27.8932,
  3.6232,
  0.0000,
  -27.8932,
  3.6232,
  6.8500;

BuildingSurface:Detailed,
  L1_Zone_8_Wall_5,
  Wall,
  BIM2BEM_Interior_Wall,
  L1_Zone_8,
  ,
  Surface,
  L1_Zone_4_Wall_3,
  NoSun,
  NoWind,
  ,
  4,
  -27.8932,
  8.0728,
  6.8500,
  -27.8932,
  8.0728,
  0.0000,
  -27.8932,
  3.6737,
  0.0000,
  -27.8932,
  3.6737,
  6.8500;

BuildingSurface:Detailed,
  L1_Zone_8_Wall_6,
  Wall,
  BIM2BEM_Interior_Wall,
  L1_Zone_8,
  ,
  Adiabatic,
  ,
  NoSun,
  NoWind,
  ,
  4,
  -27.8932,
  8.1233,
  6.8500,
  -27.8932,
  8.1233,
  0.0000,
  -27.8932,
  8.0728,
  0.0000,
  -27.8932,
  8.0728,
  6.8500;

BuildingSurface:Detailed,
  L1_Zone_8_Wall_7,
  Wall,
  BIM2BEM_Interior_Wall,
  L1_Zone_8,
  ,
  Adiabatic,
  ,
  NoSun,
  NoWind,
  ,
  4,
  -27.8932,
  1.6737,
  6.8500,
  -27.8932,
  1.6737,
  0.0000,
  -27.8932,
  1.6232,
  0.0000,
  -27.8932,
  1.6232,
  6.8500;

BuildingSurface:Detailed,
  L1_Zone_8_Wall_8,
  Wall,
  BIM2BEM_Interior_Wall,
  L1_Zone_8,
  ,
  Surface,
  L1_Zone_5_Wall_3,
  NoSun,
  NoWind,
  ,
  4,
  -27.8932,
  3.5727,
  6.8500,
  -27.8932,
  3.5727,
  0.0000,
  -27.8932,
  1.6737,
  0.0000,
  -27.8932,
  1.6737,
  6.8500;

BuildingSurface:Detailed,
  L1_Zone_8_Wall_9,
  Wall,
  BIM2BEM_Interior_Wall,
  L1_Zone_8,
  ,
  Adiabatic,
  ,
  NoSun,
  NoWind,
  ,
  4,
  -27.8932,
  3.6232,
  6.8500,
  -27.8932,
  3.6232,
  0.0000,
  -27.8932,
  3.5727,
  0.0000,
  -27.8932,
  3.5727,
  6.8500;

BuildingSurface:Detailed,
  L1_Zone_8_Wall_10,
  Wall,
  BIM2BEM_Interior_Wall,
  L1_Zone_8,
  ,
  Adiabatic,
  ,
  NoSun,
  NoWind,
  ,
  4,
  -27.8932,
  -1.8263,
  6.8500,
  -27.8932,
  -1.8263,
  0.0000,
  -27.8932,
  -1.8768,
  0.0000,
  -27.8932,
  -1.8768,
  6.8500;

BuildingSurface:Detailed,
  L1_Zone_8_Wall_11,
  Wall,
  BIM2BEM_Interior_Wall,
  L1_Zone_8,
  ,
  Surface,
  L1_Zone_6_Wall_3,
  NoSun,
  NoWind,
  ,
  4,
  -27.8932,
  1.5727,
  6.8500,
  -27.8932,
  1.5727,
  0.0000,
  -27.8932,
  -1.8263,
  0.0000,
  -27.8932,
  -1.8263,
  6.8500;

BuildingSurface:Detailed,
  L1_Zone_8_Wall_12,
  Wall,
  BIM2BEM_Interior_Wall,
  L1_Zone_8,
  ,
  Adiabatic,
  ,
  NoSun,
  NoWind,
  ,
  4,
  -27.8932,
  1.6232,
  6.8500,
  -27.8932,
  1.6232,
  0.0000,
  -27.8932,
  1.5727,
  0.0000,
  -27.8932,
  1.5727,
  6.8500;

BuildingSurface:Detailed,
  L1_Zone_8_Wall_13,
  Wall,
  BIM2BEM_Interior_Wall,
  L1_Zone_8,
  ,
  Surface,
  L1_Zone_7_Wall_2,
  NoSun,
  NoWind,
  ,
  4,
  -27.8932,
  -1.9273,
  6.8500,
  -27.8932,
  -1.9273,
  0.0000,
  -27.8932,
  -5.8263,
  0.0000,
  -27.8932,
  -5.8263,
  6.8500;

BuildingSurface:Detailed,
  L1_Zone_8_Wall_14,
  Wall,
  BIM2BEM_Interior_Wall,
  L1_Zone_8,
  ,
  Adiabatic,
  ,
  NoSun,
  NoWind,
  ,
  4,
  -27.8932,
  -1.8768,
  6.8500,
  -27.8932,
  -1.8768,
  0.0000,
  -27.8932,
  -1.9273,
  0.0000,
  -27.8932,
  -1.9273,
  6.8500;

BuildingSurface:Detailed,
  L1_Zone_8_Wall_15,
  Wall,
  BIM2BEM_nonres_ext_wall,
  L1_Zone_8,
  ,
  Outdoors,
  ,
  SunExposed,
  WindExposed,
  ,
  4,
  -27.8932,
  -5.8263,
  6.8500,
  -27.8932,
  -5.8263,
  0.0000,
  2.0058,
  -5.8263,
  0.0000,
  2.0058,
  -5.8263,
  6.8500;

BuildingSurface:Detailed,
  L1_Zone_8_Wall_16,
  Wall,
  BIM2BEM_nonres_ext_wall,
  L1_Zone_8,
  ,
  Outdoors,
  ,
  SunExposed,
  WindExposed,
  ,
  4,
  2.0058,
  -5.8263,
  6.8500,
  2.0058,
  -5.8263,
  0.0000,
  2.0058,
  -0.8262,
  0.0000,
  2.0058,
  -0.8262,
  6.8500;

BuildingSurface:Detailed,
  L1_Zone_8_Wall_17,
  Wall,
  BIM2BEM_nonres_ext_wall,
  L1_Zone_8,
  ,
  Outdoors,
  ,
  SunExposed,
  WindExposed,
  ,
  4,
  2.0058,
  -0.8262,
  6.8500,
  2.0058,
  -0.8262,
  0.0000,
  7.4058,
  -0.8262,
  0.0000,
  7.4058,
  -0.8262,
  6.8500;

BuildingSurface:Detailed,
  L1_Zone_8_Wall_18,
  Wall,
  BIM2BEM_nonres_ext_wall,
  L1_Zone_8,
  ,
  Outdoors,
  ,
  SunExposed,
  WindExposed,
  ,
  4,
  7.4058,
  -0.8262,
  6.8500,
  7.4058,
  -0.8262,
  0.0000,
  7.4058,
  4.9728,
  0.0000,
  7.4058,
  4.9728,
  6.8500;

BuildingSurface:Detailed,
  L1_Zone_8_Wall_19,
  Wall,
  BIM2BEM_Interior_Wall,
  L1_Zone_8,
  ,
  Adiabatic,
  ,
  NoSun,
  NoWind,
  ,
  4,
  2.1068,
  4.9728,
  6.8500,
  2.1068,
  4.9728,
  0.0000,
  2.0563,
  4.9728,
  0.0000,
  2.0563,
  4.9728,
  6.8500;

BuildingSurface:Detailed,
  L1_Zone_8_Wall_20,
  Wall,
  BIM2BEM_Interior_Wall,
  L1_Zone_8,
  ,
  Surface,
  L1_Zone_11_Wall_3,
  NoSun,
  NoWind,
  ,
  4,
  7.4058,
  4.9728,
  6.8500,
  7.4058,
  4.9728,
  0.0000,
  2.1068,
  4.9728,
  0.0000,
  2.1068,
  4.9728,
  6.8500;

BuildingSurface:Detailed,
  L1_Zone_8_Wall_21,
  Wall,
  BIM2BEM_Interior_Wall,
  L1_Zone_8,
  ,
  Adiabatic,
  ,
  NoSun,
  NoWind,
  ,
  4,
  -3.8932,
  4.9728,
  6.8500,
  -3.8932,
  4.9728,
  0.0000,
  -3.9437,
  4.9728,
  0.0000,
  -3.9437,
  4.9728,
  6.8500;

BuildingSurface:Detailed,
  L1_Zone_8_Wall_22,
  Wall,
  BIM2BEM_Interior_Wall,
  L1_Zone_8,
  ,
  Surface,
  L1_Zone_10_Wall_3,
  NoSun,
  NoWind,
  ,
  4,
  2.0058,
  4.9728,
  6.8500,
  2.0058,
  4.9728,
  0.0000,
  -3.8932,
  4.9728,
  0.0000,
  -3.8932,
  4.9728,
  6.8500;

BuildingSurface:Detailed,
  L1_Zone_8_Wall_23,
  Wall,
  BIM2BEM_Interior_Wall,
  L1_Zone_8,
  ,
  Adiabatic,
  ,
  NoSun,
  NoWind,
  ,
  4,
  2.0563,
  4.9728,
  6.8500,
  2.0563,
  4.9728,
  0.0000,
  2.0058,
  4.9728,
  0.0000,
  2.0058,
  4.9728,
  6.8500;

BuildingSurface:Detailed,
  L1_Zone_8_Wall_24,
  Wall,
  BIM2BEM_Interior_Wall,
  L1_Zone_8,
  ,
  Adiabatic,
  ,
  NoSun,
  NoWind,
  ,
  4,
  -9.8934,
  4.9728,
  6.8500,
  -9.8934,
  4.9728,
  0.0000,
  -9.9944,
  4.9728,
  0.0000,
  -9.9944,
  4.9728,
  6.8500;

BuildingSurface:Detailed,
  L1_Zone_8_Wall_25,
  Wall,
  BIM2BEM_Interior_Wall,
  L1_Zone_8,
  ,
  Surface,
  L1_Zone_9_Wall_3,
  NoSun,
  NoWind,
  ,
  4,
  -3.9942,
  4.9728,
  6.8500,
  -3.9942,
  4.9728,
  0.0000,
  -9.8934,
  4.9728,
  0.0000,
  -9.8934,
  4.9728,
  6.8500;

BuildingSurface:Detailed,
  L1_Zone_8_Wall_26,
  Wall,
  BIM2BEM_Interior_Wall,
  L1_Zone_8,
  ,
  Adiabatic,
  ,
  NoSun,
  NoWind,
  ,
  4,
  -3.9437,
  4.9728,
  6.8500,
  -3.9437,
  4.9728,
  0.0000,
  -3.9942,
  4.9728,
  0.0000,
  -3.9942,
  4.9728,
  6.8500;

BuildingSurface:Detailed,
  L1_Zone_8_Wall_27,
  Wall,
  BIM2BEM_Interior_Wall,
  L1_Zone_8,
  ,
  Adiabatic,
  ,
  NoSun,
  NoWind,
  ,
  4,
  -9.9944,
  4.9728,
  6.8500,
  -9.9944,
  4.9728,
  0.0000,
  -9.9944,
  5.0738,
  0.0000,
  -9.9944,
  5.0738,
  6.8500;

BuildingSurface:Detailed,
  L1_Zone_8_Wall_28,
  Wall,
  BIM2BEM_Interior_Wall,
  L1_Zone_8,
  ,
  Surface,
  L1_Zone_9_Wall_2,
  NoSun,
  NoWind,
  ,
  4,
  -9.9944,
  5.0738,
  6.8500,
  -9.9944,
  5.0738,
  0.0000,
  -9.9944,
  14.5728,
  0.0000,
  -9.9944,
  14.5728,
  6.8500;

BuildingSurface:Detailed,
  L1_Zone_9_Floor_1,
  Floor,
  Exterior Floor,
  L1_Zone_9,
  ,
  Ground,
  ,
  NoSun,
  NoWind,
  ,
  4,
  -3.9942,
  14.5728,
  0.0000,
  -3.9942,
  5.0738,
  0.0000,
  -9.8934,
  5.0738,
  0.0000,
  -9.8934,
  14.5728,
  0.0000;

BuildingSurface:Detailed,
  L1_Zone_9_Ceiling_1,
  Ceiling,
  BIM2BEM_int_slab_ceiling,
  L1_Zone_9,
  ,
  Surface,
  L2_Zone_21_Floor_8,
  NoSun,
  NoWind,
  ,
  4,
  -9.8934,
  14.5728,
  6.8500,
  -9.8934,
  5.0738,
  6.8500,
  -4.5873,
  5.0738,
  6.8500,
  -4.5873,
  14.5728,
  6.8500;

BuildingSurface:Detailed,
  L1_Zone_9_Ceiling_2,
  Ceiling,
  BIM2BEM_int_slab_ceiling,
  L1_Zone_9,
  ,
  Surface,
  L2_Zone_27_Floor_1,
  NoSun,
  NoWind,
  ,
  4,
  -4.4863,
  7.3800,
  6.8500,
  -4.4863,
  5.0738,
  6.8500,
  -3.9942,
  5.0738,
  6.8500,
  -3.9942,
  7.3800,
  6.8500;

BuildingSurface:Detailed,
  L1_Zone_9_Ceiling_3,
  Ceiling,
  BIM2BEM_int_slab_ceiling,
  L1_Zone_9,
  ,
  Surface,
  L2_Zone_22_Floor_1,
  NoSun,
  NoWind,
  ,
  4,
  -4.4863,
  14.5728,
  6.8500,
  -4.4863,
  7.4810,
  6.8500,
  -3.9942,
  7.4810,
  6.8500,
  -3.9942,
  14.5728,
  6.8500;

BuildingSurface:Detailed,
  L1_Zone_9_Roof_1,
  Roof,
  Interior Ceiling,
  L1_Zone_9,
  ,
  Adiabatic,
  ,
  NoSun,
  NoWind,
  ,
  4,
  -4.5873,
  7.3800,
  6.8500,
  -4.5873,
  5.0738,
  6.8500,
  -4.4863,
  5.0738,
  6.8500,
  -4.4863,
  7.3800,
  6.8500;

BuildingSurface:Detailed,
  L1_Zone_9_Roof_2,
  Roof,
  Interior Ceiling,
  L1_Zone_9,
  ,
  Adiabatic,
  ,
  NoSun,
  NoWind,
  ,
  4,
  -4.5873,
  14.5728,
  6.8500,
  -4.5873,
  7.4810,
  6.8500,
  -4.4863,
  7.4810,
  6.8500,
  -4.4863,
  14.5728,
  6.8500;

BuildingSurface:Detailed,
  L1_Zone_9_Roof_3,
  Roof,
  Interior Ceiling,
  L1_Zone_9,
  ,
  Adiabatic,
  ,
  NoSun,
  NoWind,
  ,
  4,
  -4.5873,
  7.4810,
  6.8500,
  -4.5873,
  7.3800,
  6.8500,
  -3.9942,
  7.3800,
  6.8500,
  -3.9942,
  7.4810,
  6.8500;

BuildingSurface:Detailed,
  L1_Zone_9_Wall_1,
  Wall,
  BIM2BEM_nonres_ext_wall,
  L1_Zone_9,
  ,
  Outdoors,
  ,
  SunExposed,
  WindExposed,
  ,
  4,
  -3.9942,
  14.5728,
  6.8500,
  -3.9942,
  14.5728,
  0.0000,
  -9.8934,
  14.5728,
  0.0000,
  -9.8934,
  14.5728,
  6.8500;

BuildingSurface:Detailed,
  L1_Zone_9_Wall_2,
  Wall,
  BIM2BEM_Interior_Wall,
  L1_Zone_9,
  ,
  Surface,
  L1_Zone_8_Wall_28,
  NoSun,
  NoWind,
  ,
  4,
  -9.8934,
  14.5728,
  6.8500,
  -9.8934,
  14.5728,
  0.0000,
  -9.8934,
  5.0738,
  0.0000,
  -9.8934,
  5.0738,
  6.8500;

BuildingSurface:Detailed,
  L1_Zone_9_Wall_3,
  Wall,
  BIM2BEM_Interior_Wall,
  L1_Zone_9,
  ,
  Surface,
  L1_Zone_8_Wall_25,
  NoSun,
  NoWind,
  ,
  4,
  -9.8934,
  5.0738,
  6.8500,
  -9.8934,
  5.0738,
  0.0000,
  -3.9942,
  5.0738,
  0.0000,
  -3.9942,
  5.0738,
  6.8500;

BuildingSurface:Detailed,
  L1_Zone_9_Wall_4,
  Wall,
  BIM2BEM_Interior_Wall,
  L1_Zone_9,
  ,
  Surface,
  L1_Zone_10_Wall_2,
  NoSun,
  NoWind,
  ,
  4,
  -3.9942,
  5.0738,
  6.8500,
  -3.9942,
  5.0738,
  0.0000,
  -3.9942,
  14.5728,
  0.0000,
  -3.9942,
  14.5728,
  6.8500;

BuildingSurface:Detailed,
  L1_Zone_10_Floor_1,
  Floor,
  Exterior Floor,
  L1_Zone_10,
  ,
  Ground,
  ,
  NoSun,
  NoWind,
  ,
  4,
  2.0058,
  14.5728,
  0.0000,
  2.0058,
  5.0738,
  0.0000,
  -3.8932,
  5.0738,
  0.0000,
  -3.8932,
  14.5728,
  0.0000;

BuildingSurface:Detailed,
  L1_Zone_10_Ceiling_1,
  Ceiling,
  BIM2BEM_int_slab_ceiling,
  L1_Zone_10,
  ,
  Surface,
  L2_Zone_27_Floor_2,
  NoSun,
  NoWind,
  ,
  4,
  -3.8932,
  7.3800,
  6.8500,
  -3.8932,
  5.0738,
  6.8500,
  2.0058,
  5.0738,
  6.8500,
  2.0058,
  7.3800,
  6.8500;

BuildingSurface:Detailed,
  L1_Zone_10_Ceiling_2,
  Ceiling,
  BIM2BEM_int_slab_ceiling,
  L1_Zone_10,
  ,
  Surface,
  L2_Zone_27_Floor_3,
  NoSun,
  NoWind,
  ,
  4,
  1.5136,
  13.0800,
  6.8500,
  1.5136,
  7.3800,
  6.8500,
  2.0058,
  7.3800,
  6.8500,
  2.0058,
  13.0800,
  6.8500;

BuildingSurface:Detailed,
  L1_Zone_10_Ceiling_3,
  Ceiling,
  BIM2BEM_int_slab_ceiling,
  L1_Zone_10,
  ,
  Surface,
  L2_Zone_22_Floor_2,
  NoSun,
  NoWind,
  ,
  4,
  -3.8932,
  14.5728,
  6.8500,
  -3.8932,
  7.4810,
  6.8500,
  -1.0873,
  7.4810,
  6.8500,
  -1.0873,
  14.5728,
  6.8500;

BuildingSurface:Detailed,
  L1_Zone_10_Ceiling_4,
  Ceiling,
  BIM2BEM_int_slab_ceiling,
  L1_Zone_10,
  ,
  Surface,
  L2_Zone_24_Floor_1,
  NoSun,
  NoWind,
  ,
  4,
  -0.9863,
  10.5800,
  6.8500,
  -0.9863,
  7.4810,
  6.8500,
  1.4126,
  7.4810,
  6.8500,
  1.4126,
  10.5800,
  6.8500;

BuildingSurface:Detailed,
  L1_Zone_10_Ceiling_5,
  Ceiling,
  BIM2BEM_int_slab_ceiling,
  L1_Zone_10,
  ,
  Surface,
  L2_Zone_23_Floor_1,
  NoSun,
  NoWind,
  ,
  4,
  -0.9863,
  14.5728,
  6.8500,
  -0.9863,
  10.6810,
  6.8500,
  1.4126,
  10.6810,
  6.8500,
  1.4126,
  14.5728,
  6.8500;

BuildingSurface:Detailed,
  L1_Zone_10_Roof_1,
  Roof,
  Interior Ceiling,
  L1_Zone_10,
  ,
  Adiabatic,
  ,
  NoSun,
  NoWind,
  ,
  4,
  -3.8932,
  7.4810,
  6.8500,
  -3.8932,
  7.3800,
  6.8500,
  1.5136,
  7.3800,
  6.8500,
  1.5136,
  7.4810,
  6.8500;

BuildingSurface:Detailed,
  L1_Zone_10_Roof_2,
  Roof,
  Interior Ceiling,
  L1_Zone_10,
  ,
  Adiabatic,
  ,
  NoSun,
  NoWind,
  ,
  4,
  -1.0873,
  10.5800,
  6.8500,
  -1.0873,
  7.4810,
  6.8500,
  -0.9863,
  7.4810,
  6.8500,
  -0.9863,
  10.5800,
  6.8500;

BuildingSurface:Detailed,
  L1_Zone_10_Roof_3,
  Roof,
  Interior Ceiling,
  L1_Zone_10,
  ,
  Adiabatic,
  ,
  NoSun,
  NoWind,
  ,
  4,
  -1.0873,
  14.5728,
  6.8500,
  -1.0873,
  10.6810,
  6.8500,
  -0.9863,
  10.6810,
  6.8500,
  -0.9863,
  14.5728,
  6.8500;

BuildingSurface:Detailed,
  L1_Zone_10_Roof_4,
  Roof,
  Interior Ceiling,
  L1_Zone_10,
  ,
  Adiabatic,
  ,
  NoSun,
  NoWind,
  ,
  4,
  -1.0873,
  10.6810,
  6.8500,
  -1.0873,
  10.5800,
  6.8500,
  1.5136,
  10.5800,
  6.8500,
  1.5136,
  10.6810,
  6.8500;

BuildingSurface:Detailed,
  L1_Zone_10_Roof_5,
  Roof,
  Interior Ceiling,
  L1_Zone_10,
  ,
  Adiabatic,
  ,
  NoSun,
  NoWind,
  ,
  4,
  1.4126,
  10.5800,
  6.8500,
  1.4126,
  7.4810,
  6.8500,
  1.5136,
  7.4810,
  6.8500,
  1.5136,
  10.5800,
  6.8500;

BuildingSurface:Detailed,
  L1_Zone_10_Roof_6,
  Roof,
  Interior Ceiling,
  L1_Zone_10,
  ,
  Adiabatic,
  ,
  NoSun,
  NoWind,
  ,
  4,
  1.4126,
  13.0800,
  6.8500,
  1.4126,
  10.6810,
  6.8500,
  1.5136,
  10.6810,
  6.8500,
  1.5136,
  13.0800,
  6.8500;

BuildingSurface:Detailed,
  L1_Zone_10_Roof_7,
  Roof,
  BIM2BEM_nonres_roof,
  L1_Zone_10,
  ,
  Outdoors,
  ,
  SunExposed,
  WindExposed,
  ,
  4,
  1.4126,
  14.5728,
  6.8500,
  1.4126,
  13.0800,
  6.8500,
  2.0058,
  13.0800,
  6.8500,
  2.0058,
  14.5728,
  6.8500;

BuildingSurface:Detailed,
  L1_Zone_10_Wall_1,
  Wall,
  BIM2BEM_nonres_ext_wall,
  L1_Zone_10,
  ,
  Outdoors,
  ,
  SunExposed,
  WindExposed,
  ,
  4,
  2.0058,
  14.5728,
  6.8500,
  2.0058,
  14.5728,
  0.0000,
  -3.8932,
  14.5728,
  0.0000,
  -3.8932,
  14.5728,
  6.8500;

BuildingSurface:Detailed,
  L1_Zone_10_Wall_2,
  Wall,
  BIM2BEM_Interior_Wall,
  L1_Zone_10,
  ,
  Surface,
  L1_Zone_9_Wall_4,
  NoSun,
  NoWind,
  ,
  4,
  -3.8932,
  14.5728,
  6.8500,
  -3.8932,
  14.5728,
  0.0000,
  -3.8932,
  5.0738,
  0.0000,
  -3.8932,
  5.0738,
  6.8500;

BuildingSurface:Detailed,
  L1_Zone_10_Wall_3,
  Wall,
  BIM2BEM_Interior_Wall,
  L1_Zone_10,
  ,
  Surface,
  L1_Zone_8_Wall_22,
  NoSun,
  NoWind,
  ,
  4,
  -3.8932,
  5.0738,
  6.8500,
  -3.8932,
  5.0738,
  0.0000,
  2.0058,
  5.0738,
  0.0000,
  2.0058,
  5.0738,
  6.8500;

BuildingSurface:Detailed,
  L1_Zone_10_Wall_4,
  Wall,
  BIM2BEM_Interior_Wall,
  L1_Zone_10,
  ,
  Surface,
  L1_Zone_11_Wall_2,
  NoSun,
  NoWind,
  ,
  4,
  2.0058,
  5.0738,
  6.8500,
  2.0058,
  5.0738,
  0.0000,
  2.0058,
  14.5728,
  0.0000,
  2.0058,
  14.5728,
  6.8500;

BuildingSurface:Detailed,
  L1_Zone_11_Floor_1,
  Floor,
  Exterior Floor,
  L1_Zone_11,
  ,
  Ground,
  ,
  NoSun,
  NoWind,
  ,
  4,
  7.4058,
  14.5728,
  0.0000,
  7.4058,
  5.0738,
  0.0000,
  2.1068,
  5.0738,
  0.0000,
  2.1068,
  14.5728,
  0.0000;

BuildingSurface:Detailed,
  L1_Zone_11_Ceiling_1,
  Ceiling,
  BIM2BEM_int_slab_ceiling,
  L1_Zone_11,
  ,
  Surface,
  L2_Zone_27_Floor_4,
  NoSun,
  NoWind,
  ,
  4,
  2.1068,
  13.0800,
  6.8500,
  2.1068,
  5.0738,
  6.8500,
  7.4058,
  5.0738,
  6.8500,
  7.4058,
  13.0800,
  6.8500;

BuildingSurface:Detailed,
  L1_Zone_11_Roof_1,
  Roof,
  BIM2BEM_nonres_roof,
  L1_Zone_11,
  ,
  Outdoors,
  ,
  SunExposed,
  WindExposed,
  ,
  4,
  2.1068,
  14.5728,
  6.8500,
  2.1068,
  13.0800,
  6.8500,
  7.4058,
  13.0800,
  6.8500,
  7.4058,
  14.5728,
  6.8500;

BuildingSurface:Detailed,
  L1_Zone_11_Wall_1,
  Wall,
  BIM2BEM_nonres_ext_wall,
  L1_Zone_11,
  ,
  Outdoors,
  ,
  SunExposed,
  WindExposed,
  ,
  4,
  7.4058,
  14.5728,
  6.8500,
  7.4058,
  14.5728,
  0.0000,
  2.1068,
  14.5728,
  0.0000,
  2.1068,
  14.5728,
  6.8500;

BuildingSurface:Detailed,
  L1_Zone_11_Wall_2,
  Wall,
  BIM2BEM_Interior_Wall,
  L1_Zone_11,
  ,
  Surface,
  L1_Zone_10_Wall_4,
  NoSun,
  NoWind,
  ,
  4,
  2.1068,
  14.5728,
  6.8500,
  2.1068,
  14.5728,
  0.0000,
  2.1068,
  5.0738,
  0.0000,
  2.1068,
  5.0738,
  6.8500;

BuildingSurface:Detailed,
  L1_Zone_11_Wall_3,
  Wall,
  BIM2BEM_Interior_Wall,
  L1_Zone_11,
  ,
  Surface,
  L1_Zone_8_Wall_20,
  NoSun,
  NoWind,
  ,
  4,
  2.1068,
  5.0738,
  6.8500,
  2.1068,
  5.0738,
  0.0000,
  7.4058,
  5.0738,
  0.0000,
  7.4058,
  5.0738,
  6.8500;

BuildingSurface:Detailed,
  L1_Zone_11_Wall_4,
  Wall,
  BIM2BEM_Interior_Wall,
  L1_Zone_11,
  ,
  Surface,
  L1_Zone_12_Wall_18,
  NoSun,
  NoWind,
  ,
  4,
  7.4058,
  5.0738,
  6.8500,
  7.4058,
  5.0738,
  0.0000,
  7.4058,
  10.5728,
  0.0000,
  7.4058,
  10.5728,
  6.8500;

BuildingSurface:Detailed,
  L1_Zone_11_Wall_5,
  Wall,
  BIM2BEM_Interior_Wall,
  L1_Zone_11,
  ,
  Adiabatic,
  ,
  NoSun,
  NoWind,
  ,
  4,
  7.4058,
  10.5728,
  6.8500,
  7.4058,
  10.5728,
  0.0000,
  7.4058,
  10.6738,
  0.0000,
  7.4058,
  10.6738,
  6.8500;

BuildingSurface:Detailed,
  L1_Zone_11_Wall_6,
  Wall,
  BIM2BEM_Interior_Wall,
  L1_Zone_11,
  ,
  Surface,
  L1_Zone_13_Wall_2,
  NoSun,
  NoWind,
  ,
  4,
  7.4058,
  10.6738,
  6.8500,
  7.4058,
  10.6738,
  0.0000,
  7.4058,
  14.5728,
  0.0000,
  7.4058,
  14.5728,
  6.8500;

BuildingSurface:Detailed,
  L1_Zone_19_Floor_1,
  Floor,
  Exterior Floor,
  L1_Zone_19,
  ,
  Ground,
  ,
  NoSun,
  NoWind,
  ,
  4,
  20.9808,
  8.5710,
  0.0000,
  20.9808,
  5.0738,
  0.0000,
  14.0044,
  5.0738,
  0.0000,
  14.0044,
  8.5710,
  0.0000;

BuildingSurface:Detailed,
  L1_Zone_19_Ceiling_1,
  Ceiling,
  BIM2BEM_int_slab_ceiling,
  L1_Zone_19,
  ,
  Surface,
  L2_Zone_42_Floor_1,
  NoSun,
  NoWind,
  ,
  4,
  14.0044,
  8.5710,
  6.8500,
  14.0044,
  5.0738,
  6.8500,
  20.9808,
  5.0738,
  6.8500,
  20.9808,
  8.5710,
  6.8500;

BuildingSurface:Detailed,
  L1_Zone_19_Wall_1,
  Wall,
  BIM2BEM_nonres_ext_wall,
  L1_Zone_19,
  ,
  Outdoors,
  ,
  SunExposed,
  WindExposed,
  ,
  4,
  14.0044,
  5.0738,
  6.8500,
  14.0044,
  5.0738,
  0.0000,
  20.9808,
  5.0738,
  0.0000,
  20.9808,
  5.0738,
  6.8500;

BuildingSurface:Detailed,
  L1_Zone_19_Wall_2,
  Wall,
  BIM2BEM_Interior_Wall,
  L1_Zone_19,
  ,
  Surface,
  L1_Zone_17_Wall_2,
  NoSun,
  NoWind,
  ,
  4,
  20.9808,
  5.0738,
  6.8500,
  20.9808,
  5.0738,
  0.0000,
  20.9808,
  8.5710,
  0.0000,
  20.9808,
  8.5710,
  6.8500;

BuildingSurface:Detailed,
  L1_Zone_19_Wall_3,
  Wall,
  BIM2BEM_Interior_Wall,
  L1_Zone_19,
  ,
  Surface,
  L1_Zone_12_Wall_5,
  NoSun,
  NoWind,
  ,
  4,
  20.9808,
  8.5710,
  6.8500,
  20.9808,
  8.5710,
  0.0000,
  14.0044,
  8.5710,
  0.0000,
  14.0044,
  8.5710,
  6.8500;

BuildingSurface:Detailed,
  L1_Zone_19_Wall_4,
  Wall,
  BIM2BEM_Interior_Wall,
  L1_Zone_19,
  ,
  Surface,
  L1_Zone_12_Wall_2,
  NoSun,
  NoWind,
  ,
  4,
  14.0044,
  8.5710,
  6.8500,
  14.0044,
  8.5710,
  0.0000,
  14.0044,
  5.0738,
  0.0000,
  14.0044,
  5.0738,
  6.8500;

BuildingSurface:Detailed,
  L1_Zone_13_Floor_1,
  Floor,
  Exterior Floor,
  L1_Zone_13,
  ,
  Ground,
  ,
  NoSun,
  NoWind,
  ,
  4,
  11.4058,
  14.5728,
  0.0000,
  11.4058,
  10.6738,
  0.0000,
  7.5068,
  10.6738,
  0.0000,
  7.5068,
  14.5728,
  0.0000;

BuildingSurface:Detailed,
  L1_Zone_13_Ceiling_1,
  Ceiling,
  BIM2BEM_int_slab_ceiling,
  L1_Zone_13,
  ,
  Surface,
  L2_Zone_31_Floor_1,
  NoSun,
  NoWind,
  ,
  4,
  7.5068,
  14.5728,
  6.8500,
  7.5068,
  10.6810,
  6.8500,
  11.4058,
  10.6810,
  6.8500,
  11.4058,
  14.5728,
  6.8500;

BuildingSurface:Detailed,
  L1_Zone_13_Roof_1,
  Roof,
  Interior Ceiling,
  L1_Zone_13,
  ,
  Adiabatic,
  ,
  NoSun,
  NoWind,
  ,
  4,
  7.5068,
  10.6810,
  6.8500,
  7.5068,
  10.6738,
  6.8500,
  11.4058,
  10.6738,
  6.8500,
  11.4058,
  10.6810,
  6.8500;

BuildingSurface:Detailed,
  L1_Zone_13_Wall_1,
  Wall,
  BIM2BEM_nonres_ext_wall,
  L1_Zone_13,
  ,
  Outdoors,
  ,
  SunExposed,
  WindExposed,
  ,
  4,
  11.4058,
  14.5728,
  6.8500,
  11.4058,
  14.5728,
  0.0000,
  7.5068,
  14.5728,
  0.0000,
  7.5068,
  14.5728,
  6.8500;

BuildingSurface:Detailed,
  L1_Zone_13_Wall_2,
  Wall,
  BIM2BEM_Interior_Wall,
  L1_Zone_13,
  ,
  Surface,
  L1_Zone_11_Wall_6,
  NoSun,
  NoWind,
  ,
  4,
  7.5068,
  14.5728,
  6.8500,
  7.5068,
  14.5728,
  0.0000,
  7.5068,
  10.6738,
  0.0000,
  7.5068,
  10.6738,
  6.8500;

BuildingSurface:Detailed,
  L1_Zone_13_Wall_3,
  Wall,
  BIM2BEM_Interior_Wall,
  L1_Zone_13,
  ,
  Surface,
  L1_Zone_12_Wall_16,
  NoSun,
  NoWind,
  ,
  4,
  7.5068,
  10.6738,
  6.8500,
  7.5068,
  10.6738,
  0.0000,
  11.4058,
  10.6738,
  0.0000,
  11.4058,
  10.6738,
  6.8500;

BuildingSurface:Detailed,
  L1_Zone_13_Wall_4,
  Wall,
  BIM2BEM_Interior_Wall,
  L1_Zone_13,
  ,
  Surface,
  L1_Zone_12_Wall_15,
  NoSun,
  NoWind,
  ,
  4,
  11.4058,
  10.6738,
  6.8500,
  11.4058,
  10.6738,
  0.0000,
  11.4058,
  10.9728,
  0.0000,
  11.4058,
  10.9728,
  6.8500;

BuildingSurface:Detailed,
  L1_Zone_13_Wall_5,
  Wall,
  BIM2BEM_Interior_Wall,
  L1_Zone_13,
  ,
  Adiabatic,
  ,
  NoSun,
  NoWind,
  ,
  4,
  11.4058,
  10.9728,
  6.8500,
  11.4058,
  10.9728,
  0.0000,
  11.4058,
  11.0738,
  0.0000,
  11.4058,
  11.0738,
  6.8500;

BuildingSurface:Detailed,
  L1_Zone_13_Wall_6,
  Wall,
  BIM2BEM_Interior_Wall,
  L1_Zone_13,
  ,
  Surface,
  L1_Zone_14_Wall_2,
  NoSun,
  NoWind,
  ,
  4,
  11.4058,
  11.0738,
  6.8500,
  11.4058,
  11.0738,
  0.0000,
  11.4058,
  14.5728,
  0.0000,
  11.4058,
  14.5728,
  6.8500;

BuildingSurface:Detailed,
  L1_Zone_14_Floor_1,
  Floor,
  Exterior Floor,
  L1_Zone_14,
  ,
  Ground,
  ,
  NoSun,
  NoWind,
  ,
  4,
  14.4808,
  14.5728,
  0.0000,
  14.4808,
  11.0738,
  0.0000,
  11.5068,
  11.0738,
  0.0000,
  11.5068,
  14.5728,
  0.0000;

BuildingSurface:Detailed,
  L1_Zone_14_Ceiling_1,
  Ceiling,
  BIM2BEM_int_slab_ceiling,
  L1_Zone_14,
  ,
  Surface,
  L2_Zone_32_Floor_1,
  NoSun,
  NoWind,
  ,
  4,
  11.5137,
  14.5728,
  6.8500,
  11.5137,
  11.0810,
  6.8500,
  14.4808,
  11.0810,
  6.8500,
  14.4808,
  14.5728,
  6.8500;

BuildingSurface:Detailed,
  L1_Zone_14_Roof_1,
  Roof,
  Interior Ceiling,
  L1_Zone_14,
  ,
  Adiabatic,
  ,
  NoSun,
  NoWind,
  ,
  4,
  11.5068,
  14.5728,
  6.8500,
  11.5068,
  11.0810,
  6.8500,
  11.5137,
  11.0810,
  6.8500,
  11.5137,
  14.5728,
  6.8500;

BuildingSurface:Detailed,
  L1_Zone_14_Roof_2,
  Roof,
  Interior Ceiling,
  L1_Zone_14,
  ,
  Adiabatic,
  ,
  NoSun,
  NoWind,
  ,
  4,
  11.5068,
  11.0810,
  6.8500,
  11.5068,
  11.0738,
  6.8500,
  14.4808,
  11.0738,
  6.8500,
  14.4808,
  11.0810,
  6.8500;

BuildingSurface:Detailed,
  L1_Zone_14_Wall_1,
  Wall,
  BIM2BEM_nonres_ext_wall,
  L1_Zone_14,
  ,
  Outdoors,
  ,
  SunExposed,
  WindExposed,
  ,
  4,
  14.4808,
  14.5728,
  6.8500,
  14.4808,
  14.5728,
  0.0000,
  11.5068,
  14.5728,
  0.0000,
  11.5068,
  14.5728,
  6.8500;

BuildingSurface:Detailed,
  L1_Zone_14_Wall_2,
  Wall,
  BIM2BEM_Interior_Wall,
  L1_Zone_14,
  ,
  Surface,
  L1_Zone_13_Wall_6,
  NoSun,
  NoWind,
  ,
  4,
  11.5068,
  14.5728,
  6.8500,
  11.5068,
  14.5728,
  0.0000,
  11.5068,
  11.0738,
  0.0000,
  11.5068,
  11.0738,
  6.8500;

BuildingSurface:Detailed,
  L1_Zone_14_Wall_3,
  Wall,
  BIM2BEM_Interior_Wall,
  L1_Zone_14,
  ,
  Surface,
  L1_Zone_12_Wall_12,
  NoSun,
  NoWind,
  ,
  4,
  11.5068,
  11.0738,
  6.8500,
  11.5068,
  11.0738,
  0.0000,
  14.4808,
  11.0738,
  0.0000,
  14.4808,
  11.0738,
  6.8500;

BuildingSurface:Detailed,
  L1_Zone_14_Wall_4,
  Wall,
  BIM2BEM_Interior_Wall,
  L1_Zone_14,
  ,
  Surface,
  L1_Zone_15_Wall_2,
  NoSun,
  NoWind,
  ,
  4,
  14.4808,
  11.0738,
  6.8500,
  14.4808,
  11.0738,
  0.0000,
  14.4808,
  14.5728,
  0.0000,
  14.4808,
  14.5728,
  6.8500;

BuildingSurface:Detailed,
  L1_Zone_15_Floor_1,
  Floor,
  Exterior Floor,
  L1_Zone_15,
  ,
  Ground,
  ,
  NoSun,
  NoWind,
  ,
  4,
  17.7308,
  14.5728,
  0.0000,
  17.7308,
  11.0738,
  0.0000,
  14.5818,
  11.0738,
  0.0000,
  14.5818,
  14.5728,
  0.0000;

BuildingSurface:Detailed,
  L1_Zone_15_Ceiling_1,
  Ceiling,
  BIM2BEM_int_slab_ceiling,
  L1_Zone_15,
  ,
  Surface,
  L2_Zone_34_Floor_1,
  NoSun,
  NoWind,
  ,
  4,
  14.6137,
  14.5728,
  6.8500,
  14.6137,
  11.0810,
  6.8500,
  17.7308,
  11.0810,
  6.8500,
  17.7308,
  14.5728,
  6.8500;

BuildingSurface:Detailed,
  L1_Zone_15_Roof_1,
  Roof,
  Interior Ceiling,
  L1_Zone_15,
  ,
  Adiabatic,
  ,
  NoSun,
  NoWind,
  ,
  4,
  14.5818,
  14.5728,
  6.8500,
  14.5818,
  11.0810,
  6.8500,
  14.6137,
  11.0810,
  6.8500,
  14.6137,
  14.5728,
  6.8500;

BuildingSurface:Detailed,
  L1_Zone_15_Roof_2,
  Roof,
  Interior Ceiling,
  L1_Zone_15,
  ,
  Adiabatic,
  ,
  NoSun,
  NoWind,
  ,
  4,
  14.5818,
  11.0810,
  6.8500,
  14.5818,
  11.0738,
  6.8500,
  17.7308,
  11.0738,
  6.8500,
  17.7308,
  11.0810,
  6.8500;

BuildingSurface:Detailed,
  L1_Zone_15_Wall_1,
  Wall,
  BIM2BEM_nonres_ext_wall,
  L1_Zone_15,
  ,
  Outdoors,
  ,
  SunExposed,
  WindExposed,
  ,
  4,
  17.7308,
  14.5728,
  6.8500,
  17.7308,
  14.5728,
  0.0000,
  14.5818,
  14.5728,
  0.0000,
  14.5818,
  14.5728,
  6.8500;

BuildingSurface:Detailed,
  L1_Zone_15_Wall_2,
  Wall,
  BIM2BEM_Interior_Wall,
  L1_Zone_15,
  ,
  Surface,
  L1_Zone_14_Wall_4,
  NoSun,
  NoWind,
  ,
  4,
  14.5818,
  14.5728,
  6.8500,
  14.5818,
  14.5728,
  0.0000,
  14.5818,
  11.0738,
  0.0000,
  14.5818,
  11.0738,
  6.8500;

BuildingSurface:Detailed,
  L1_Zone_15_Wall_3,
  Wall,
  BIM2BEM_Interior_Wall,
  L1_Zone_15,
  ,
  Surface,
  L1_Zone_12_Wall_10,
  NoSun,
  NoWind,
  ,
  4,
  14.5818,
  11.0738,
  6.8500,
  14.5818,
  11.0738,
  0.0000,
  17.7308,
  11.0738,
  0.0000,
  17.7308,
  11.0738,
  6.8500;

BuildingSurface:Detailed,
  L1_Zone_15_Wall_4,
  Wall,
  BIM2BEM_Interior_Wall,
  L1_Zone_15,
  ,
  Surface,
  L1_Zone_16_Wall_2,
  NoSun,
  NoWind,
  ,
  4,
  17.7308,
  11.0738,
  6.8500,
  17.7308,
  11.0738,
  0.0000,
  17.7308,
  14.5728,
  0.0000,
  17.7308,
  14.5728,
  6.8500;

BuildingSurface:Detailed,
  L1_Zone_16_Floor_1,
  Floor,
  Exterior Floor,
  L1_Zone_16,
  ,
  Ground,
  ,
  NoSun,
  NoWind,
  ,
  4,
  20.9808,
  14.5728,
  0.0000,
  20.9808,
  11.0738,
  0.0000,
  17.8318,
  11.0738,
  0.0000,
  17.8318,
  14.5728,
  0.0000;

BuildingSurface:Detailed,
  L1_Zone_16_Ceiling_1,
  Ceiling,
  BIM2BEM_int_slab_ceiling,
  L1_Zone_16,
  ,
  Surface,
  L2_Zone_35_Floor_1,
  NoSun,
  NoWind,
  ,
  4,
  17.8637,
  14.5728,
  6.8500,
  17.8637,
  11.0810,
  6.8500,
  20.9808,
  11.0810,
  6.8500,
  20.9808,
  14.5728,
  6.8500;

BuildingSurface:Detailed,
  L1_Zone_16_Roof_1,
  Roof,
  Interior Ceiling,
  L1_Zone_16,
  ,
  Adiabatic,
  ,
  NoSun,
  NoWind,
  ,
  4,
  17.8318,
  14.5728,
  6.8500,
  17.8318,
  11.0810,
  6.8500,
  17.8637,
  11.0810,
  6.8500,
  17.8637,
  14.5728,
  6.8500;

BuildingSurface:Detailed,
  L1_Zone_16_Roof_2,
  Roof,
  Interior Ceiling,
  L1_Zone_16,
  ,
  Adiabatic,
  ,
  NoSun,
  NoWind,
  ,
  4,
  17.8318,
  11.0810,
  6.8500,
  17.8318,
  11.0738,
  6.8500,
  20.9808,
  11.0738,
  6.8500,
  20.9808,
  11.0810,
  6.8500;

BuildingSurface:Detailed,
  L1_Zone_16_Wall_1,
  Wall,
  BIM2BEM_nonres_ext_wall,
  L1_Zone_16,
  ,
  Outdoors,
  ,
  SunExposed,
  WindExposed,
  ,
  4,
  20.9808,
  14.5728,
  6.8500,
  20.9808,
  14.5728,
  0.0000,
  17.8318,
  14.5728,
  0.0000,
  17.8318,
  14.5728,
  6.8500;

BuildingSurface:Detailed,
  L1_Zone_16_Wall_2,
  Wall,
  BIM2BEM_Interior_Wall,
  L1_Zone_16,
  ,
  Surface,
  L1_Zone_15_Wall_4,
  NoSun,
  NoWind,
  ,
  4,
  17.8318,
  14.5728,
  6.8500,
  17.8318,
  14.5728,
  0.0000,
  17.8318,
  11.0738,
  0.0000,
  17.8318,
  11.0738,
  6.8500;

BuildingSurface:Detailed,
  L1_Zone_16_Wall_3,
  Wall,
  BIM2BEM_Interior_Wall,
  L1_Zone_16,
  ,
  Surface,
  L1_Zone_12_Wall_8,
  NoSun,
  NoWind,
  ,
  4,
  17.8318,
  11.0738,
  6.8500,
  17.8318,
  11.0738,
  0.0000,
  20.9808,
  11.0738,
  0.0000,
  20.9808,
  11.0738,
  6.8500;

BuildingSurface:Detailed,
  L1_Zone_16_Wall_4,
  Wall,
  BIM2BEM_Interior_Wall,
  L1_Zone_16,
  ,
  Surface,
  L1_Zone_17_Wall_6,
  NoSun,
  NoWind,
  ,
  4,
  20.9808,
  11.0738,
  6.8500,
  20.9808,
  11.0738,
  0.0000,
  20.9808,
  14.5728,
  0.0000,
  20.9808,
  14.5728,
  6.8500;

BuildingSurface:Detailed,
  L1_Zone_17_Floor_1,
  Floor,
  Exterior Floor,
  L1_Zone_17,
  ,
  Ground,
  ,
  NoSun,
  NoWind,
  ,
  4,
  27.9808,
  14.5728,
  0.0000,
  27.9808,
  5.0738,
  0.0000,
  21.0818,
  5.0738,
  0.0000,
  21.0818,
  14.5728,
  0.0000;

BuildingSurface:Detailed,
  L1_Zone_17_Ceiling_1,
  Ceiling,
  BIM2BEM_int_slab_ceiling,
  L1_Zone_17,
  ,
  Surface,
  L2_Zone_30_Floor_5,
  NoSun,
  NoWind,
  ,
  4,
  21.0818,
  10.9800,
  6.8500,
  21.0818,
  8.6720,
  6.8500,
  27.9808,
  8.6720,
  6.8500,
  27.9808,
  10.9800,
  6.8500;

BuildingSurface:Detailed,
  L1_Zone_17_Ceiling_2,
  Ceiling,
  BIM2BEM_int_slab_ceiling,
  L1_Zone_17,
  ,
  Surface,
  L2_Zone_26_Floor_1,
  NoSun,
  NoWind,
  ,
  4,
  21.1068,
  8.5710,
  6.8500,
  21.1068,
  5.0738,
  6.8500,
  27.9808,
  5.0738,
  6.8500,
  27.9808,
  8.5710,
  6.8500;

BuildingSurface:Detailed,
  L1_Zone_17_Ceiling_3,
  Ceiling,
  BIM2BEM_int_slab_ceiling,
  L1_Zone_17,
  ,
  Surface,
  L2_Zone_36_Floor_1,
  NoSun,
  NoWind,
  ,
  4,
  21.1142,
  14.5728,
  6.8500,
  21.1142,
  11.0810,
  6.8500,
  27.9808,
  11.0810,
  6.8500,
  27.9808,
  14.5728,
  6.8500;

BuildingSurface:Detailed,
  L1_Zone_17_Roof_1,
  Roof,
  Interior Ceiling,
  L1_Zone_17,
  ,
  Adiabatic,
  ,
  NoSun,
  NoWind,
  ,
  4,
  21.0818,
  8.5710,
  6.8500,
  21.0818,
  5.0738,
  6.8500,
  21.1068,
  5.0738,
  6.8500,
  21.1068,
  8.5710,
  6.8500;

BuildingSurface:Detailed,
  L1_Zone_17_Roof_2,
  Roof,
  Interior Ceiling,
  L1_Zone_17,
  ,
  Adiabatic,
  ,
  NoSun,
  NoWind,
  ,
  4,
  21.0818,
  14.5728,
  6.8500,
  21.0818,
  11.0810,
  6.8500,
  21.1142,
  11.0810,
  6.8500,
  21.1142,
  14.5728,
  6.8500;

BuildingSurface:Detailed,
  L1_Zone_17_Roof_3,
  Roof,
  Interior Ceiling,
  L1_Zone_17,
  ,
  Adiabatic,
  ,
  NoSun,
  NoWind,
  ,
  4,
  21.0818,
  8.6720,
  6.8500,
  21.0818,
  8.5710,
  6.8500,
  27.9808,
  8.5710,
  6.8500,
  27.9808,
  8.6720,
  6.8500;

BuildingSurface:Detailed,
  L1_Zone_17_Roof_4,
  Roof,
  Interior Ceiling,
  L1_Zone_17,
  ,
  Adiabatic,
  ,
  NoSun,
  NoWind,
  ,
  4,
  21.0818,
  11.0810,
  6.8500,
  21.0818,
  10.9800,
  6.8500,
  27.9808,
  10.9800,
  6.8500,
  27.9808,
  11.0810,
  6.8500;

BuildingSurface:Detailed,
  L1_Zone_17_Wall_1,
  Wall,
  BIM2BEM_nonres_ext_wall,
  L1_Zone_17,
  ,
  Outdoors,
  ,
  SunExposed,
  WindExposed,
  ,
  4,
  27.9808,
  14.5728,
  6.8500,
  27.9808,
  14.5728,
  0.0000,
  21.0818,
  14.5728,
  0.0000,
  21.0818,
  14.5728,
  6.8500;

BuildingSurface:Detailed,
  L1_Zone_17_Wall_2,
  Wall,
  BIM2BEM_Interior_Wall,
  L1_Zone_17,
  ,
  Surface,
  L1_Zone_19_Wall_2,
  NoSun,
  NoWind,
  ,
  4,
  21.0818,
  8.5710,
  6.8500,
  21.0818,
  8.5710,
  0.0000,
  21.0818,
  5.0738,
  0.0000,
  21.0818,
  5.0738,
  6.8500;

BuildingSurface:Detailed,
  L1_Zone_17_Wall_3,
  Wall,
  BIM2BEM_Interior_Wall,
  L1_Zone_17,
  ,
  Adiabatic,
  ,
  NoSun,
  NoWind,
  ,
  4,
  21.0818,
  8.6720,
  6.8500,
  21.0818,
  8.6720,
  0.0000,
  21.0818,
  8.5710,
  0.0000,
  21.0818,
  8.5710,
  6.8500;

BuildingSurface:Detailed,
  L1_Zone_17_Wall_4,
  Wall,
  BIM2BEM_Interior_Wall,
  L1_Zone_17,
  ,
  Surface,
  L1_Zone_12_Wall_6,
  NoSun,
  NoWind,
  ,
  4,
  21.0818,
  10.9728,
  6.8500,
  21.0818,
  10.9728,
  0.0000,
  21.0818,
  8.6720,
  0.0000,
  21.0818,
  8.6720,
  6.8500;

BuildingSurface:Detailed,
  L1_Zone_17_Wall_5,
  Wall,
  BIM2BEM_Interior_Wall,
  L1_Zone_17,
  ,
  Adiabatic,
  ,
  NoSun,
  NoWind,
  ,
  4,
  21.0818,
  11.0738,
  6.8500,
  21.0818,
  11.0738,
  0.0000,
  21.0818,
  10.9728,
  0.0000,
  21.0818,
  10.9728,
  6.8500;

BuildingSurface:Detailed,
  L1_Zone_17_Wall_6,
  Wall,
  BIM2BEM_Interior_Wall,
  L1_Zone_17,
  ,
  Surface,
  L1_Zone_16_Wall_4,
  NoSun,
  NoWind,
  ,
  4,
  21.0818,
  14.5728,
  6.8500,
  21.0818,
  14.5728,
  0.0000,
  21.0818,
  11.0738,
  0.0000,
  21.0818,
  11.0738,
  6.8500;

BuildingSurface:Detailed,
  L1_Zone_17_Wall_7,
  Wall,
  BIM2BEM_nonres_ext_wall,
  L1_Zone_17,
  ,
  Outdoors,
  ,
  SunExposed,
  WindExposed,
  ,
  4,
  21.0818,
  5.0738,
  6.8500,
  21.0818,
  5.0738,
  0.0000,
  27.9808,
  5.0738,
  0.0000,
  27.9808,
  5.0738,
  6.8500;

BuildingSurface:Detailed,
  L1_Zone_17_Wall_8,
  Wall,
  BIM2BEM_Interior_Wall,
  L1_Zone_17,
  ,
  Surface,
  L1_Zone_18_Wall_2,
  NoSun,
  NoWind,
  ,
  4,
  27.9808,
  5.0738,
  6.8500,
  27.9808,
  5.0738,
  0.0000,
  27.9808,
  14.5728,
  0.0000,
  27.9808,
  14.5728,
  6.8500;

BuildingSurface:Detailed,
  L1_Zone_18_Floor_1,
  Floor,
  Exterior Floor,
  L1_Zone_18,
  ,
  Ground,
  ,
  NoSun,
  NoWind,
  ,
  4,
  34.5058,
  14.5728,
  0.0000,
  34.5058,
  5.0738,
  0.0000,
  28.0818,
  5.0738,
  0.0000,
  28.0818,
  14.5728,
  0.0000;

BuildingSurface:Detailed,
  L1_Zone_18_Ceiling_1,
  Ceiling,
  BIM2BEM_int_slab_ceiling,
  L1_Zone_18,
  ,
  Surface,
  L2_Zone_40_Floor_1,
  NoSun,
  NoWind,
  ,
  4,
  28.0995,
  12.4649,
  6.8500,
  28.0995,
  5.0738,
  6.8500,
  33.0035,
  5.0738,
  6.8500,
  33.0035,
  12.4649,
  6.8500;

BuildingSurface:Detailed,
  L1_Zone_18_Ceiling_2,
  Ceiling,
  BIM2BEM_int_slab_ceiling,
  L1_Zone_18,
  ,
  Surface,
  L2_Zone_37_Floor_1,
  NoSun,
  NoWind,
  ,
  4,
  28.0995,
  14.5728,
  6.8500,
  28.0995,
  12.5659,
  6.8500,
  30.8035,
  12.5659,
  6.8500,
  30.8035,
  14.5728,
  6.8500;

BuildingSurface:Detailed,
  L1_Zone_18_Ceiling_3,
  Ceiling,
  BIM2BEM_int_slab_ceiling,
  L1_Zone_18,
  ,
  Surface,
  L2_Zone_38_Floor_1,
  NoSun,
  NoWind,
  ,
  4,
  30.9045,
  14.5728,
  6.8500,
  30.9045,
  12.5659,
  6.8500,
  32.6035,
  12.5659,
  6.8500,
  32.6035,
  14.5728,
  6.8500;

BuildingSurface:Detailed,
  L1_Zone_18_Ceiling_4,
  Ceiling,
  BIM2BEM_int_slab_ceiling,
  L1_Zone_18,
  ,
  Surface,
  L2_Zone_39_Floor_1,
  NoSun,
  NoWind,
  ,
  4,
  32.7045,
  14.5728,
  6.8500,
  32.7045,
  12.5659,
  6.8500,
  34.5058,
  12.5659,
  6.8500,
  34.5058,
  14.5728,
  6.8500;

BuildingSurface:Detailed,
  L1_Zone_18_Roof_1,
  Roof,
  Interior Ceiling,
  L1_Zone_18,
  ,
  Adiabatic,
  ,
  NoSun,
  NoWind,
  ,
  4,
  28.0818,
  12.4649,
  6.8500,
  28.0818,
  5.0738,
  6.8500,
  28.0995,
  5.0738,
  6.8500,
  28.0995,
  12.4649,
  6.8500;

BuildingSurface:Detailed,
  L1_Zone_18_Roof_2,
  Roof,
  Interior Ceiling,
  L1_Zone_18,
  ,
  Adiabatic,
  ,
  NoSun,
  NoWind,
  ,
  4,
  28.0818,
  14.5728,
  6.8500,
  28.0818,
  12.5659,
  6.8500,
  28.0995,
  12.5659,
  6.8500,
  28.0995,
  14.5728,
  6.8500;

BuildingSurface:Detailed,
  L1_Zone_18_Roof_3,
  Roof,
  Interior Ceiling,
  L1_Zone_18,
  ,
  Adiabatic,
  ,
  NoSun,
  NoWind,
  ,
  4,
  28.0818,
  12.5659,
  6.8500,
  28.0818,
  12.4649,
  6.8500,
  34.5058,
  12.4649,
  6.8500,
  34.5058,
  12.5659,
  6.8500;

BuildingSurface:Detailed,
  L1_Zone_18_Roof_4,
  Roof,
  Interior Ceiling,
  L1_Zone_18,
  ,
  Adiabatic,
  ,
  NoSun,
  NoWind,
  ,
  4,
  30.8035,
  14.5728,
  6.8500,
  30.8035,
  12.5659,
  6.8500,
  30.9045,
  12.5659,
  6.8500,
  30.9045,
  14.5728,
  6.8500;

BuildingSurface:Detailed,
  L1_Zone_18_Roof_5,
  Roof,
  Interior Ceiling,
  L1_Zone_18,
  ,
  Adiabatic,
  ,
  NoSun,
  NoWind,
  ,
  4,
  32.6035,
  14.5728,
  6.8500,
  32.6035,
  12.5659,
  6.8500,
  32.7045,
  12.5659,
  6.8500,
  32.7045,
  14.5728,
  6.8500;

BuildingSurface:Detailed,
  L1_Zone_18_Roof_6,
  Roof,
  BIM2BEM_nonres_roof,
  L1_Zone_18,
  ,
  Outdoors,
  ,
  SunExposed,
  WindExposed,
  ,
  4,
  33.0035,
  12.4649,
  6.8500,
  33.0035,
  5.0738,
  6.8500,
  34.5058,
  5.0738,
  6.8500,
  34.5058,
  12.4649,
  6.8500;

BuildingSurface:Detailed,
  L1_Zone_18_Wall_1,
  Wall,
  BIM2BEM_nonres_ext_wall,
  L1_Zone_18,
  ,
  Outdoors,
  ,
  SunExposed,
  WindExposed,
  ,
  4,
  34.5058,
  14.5728,
  6.8500,
  34.5058,
  14.5728,
  0.0000,
  28.0818,
  14.5728,
  0.0000,
  28.0818,
  14.5728,
  6.8500;

BuildingSurface:Detailed,
  L1_Zone_18_Wall_2,
  Wall,
  BIM2BEM_Interior_Wall,
  L1_Zone_18,
  ,
  Surface,
  L1_Zone_17_Wall_8,
  NoSun,
  NoWind,
  ,
  4,
  28.0818,
  14.5728,
  6.8500,
  28.0818,
  14.5728,
  0.0000,
  28.0818,
  5.0738,
  0.0000,
  28.0818,
  5.0738,
  6.8500;

BuildingSurface:Detailed,
  L1_Zone_18_Wall_3,
  Wall,
  BIM2BEM_nonres_ext_wall,
  L1_Zone_18,
  ,
  Outdoors,
  ,
  SunExposed,
  WindExposed,
  ,
  4,
  28.0818,
  5.0738,
  6.8500,
  28.0818,
  5.0738,
  0.0000,
  34.5058,
  5.0738,
  0.0000,
  34.5058,
  5.0738,
  6.8500;

BuildingSurface:Detailed,
  L1_Zone_18_Wall_4,
  Wall,
  BIM2BEM_nonres_ext_wall,
  L1_Zone_18,
  ,
  Outdoors,
  ,
  SunExposed,
  WindExposed,
  ,
  4,
  34.5058,
  5.0738,
  6.8500,
  34.5058,
  5.0738,
  0.0000,
  34.5058,
  14.5728,
  0.0000,
  34.5058,
  14.5728,
  6.8500;

BuildingSurface:Detailed,
  L1_Zone_12_Floor_1,
  Floor,
  Exterior Floor,
  L1_Zone_12,
  ,
  Ground,
  ,
  NoSun,
  NoWind,
  ,
  4,
  13.9034,
  8.6720,
  0.0000,
  13.9034,
  5.0738,
  0.0000,
  7.5068,
  5.0738,
  0.0000,
  7.5068,
  8.6720,
  0.0000;

BuildingSurface:Detailed,
  L1_Zone_12_Floor_2,
  Floor,
  Exterior Floor,
  L1_Zone_12,
  ,
  Ground,
  ,
  NoSun,
  NoWind,
  ,
  4,
  20.9808,
  10.5728,
  0.0000,
  20.9808,
  8.6720,
  0.0000,
  7.5068,
  8.6720,
  0.0000,
  7.5068,
  10.5728,
  0.0000;

BuildingSurface:Detailed,
  L1_Zone_12_Floor_3,
  Floor,
  Exterior Floor,
  L1_Zone_12,
  ,
  Ground,
  ,
  NoSun,
  NoWind,
  ,
  4,
  20.9808,
  10.9728,
  0.0000,
  20.9808,
  10.5728,
  0.0000,
  11.5068,
  10.5728,
  0.0000,
  11.5068,
  10.9728,
  0.0000;

BuildingSurface:Detailed,
  L1_Zone_12_Ceiling_1,
  Ceiling,
  BIM2BEM_int_slab_ceiling,
  L1_Zone_12,
  ,
  Surface,
  L2_Zone_30_Floor_1,
  NoSun,
  NoWind,
  ,
  4,
  7.5068,
  8.6720,
  6.8500,
  7.5068,
  5.0738,
  6.8500,
  13.9034,
  5.0738,
  6.8500,
  13.9034,
  8.6720,
  6.8500;

BuildingSurface:Detailed,
  L1_Zone_12_Ceiling_2,
  Ceiling,
  BIM2BEM_int_slab_ceiling,
  L1_Zone_12,
  ,
  Surface,
  L2_Zone_30_Floor_2,
  NoSun,
  NoWind,
  ,
  4,
  7.5068,
  10.5728,
  6.8500,
  7.5068,
  8.6720,
  6.8500,
  20.9808,
  8.6720,
  6.8500,
  20.9808,
  10.5728,
  6.8500;

BuildingSurface:Detailed,
  L1_Zone_12_Ceiling_3,
  Ceiling,
  BIM2BEM_int_slab_ceiling,
  L1_Zone_12,
  ,
  Surface,
  L2_Zone_30_Floor_3,
  NoSun,
  NoWind,
  ,
  4,
  11.5068,
  10.5800,
  6.8500,
  11.5068,
  10.5728,
  6.8500,
  20.9808,
  10.5728,
  6.8500,
  20.9808,
  10.5800,
  6.8500;

BuildingSurface:Detailed,
  L1_Zone_12_Ceiling_4,
  Ceiling,
  BIM2BEM_int_slab_ceiling,
  L1_Zone_12,
  ,
  Surface,
  L2_Zone_30_Floor_4,
  NoSun,
  NoWind,
  ,
  4,
  11.5137,
  10.9728,
  6.8500,
  11.5137,
  10.5800,
  6.8500,
  20.9808,
  10.5800,
  6.8500,
  20.9808,
  10.9728,
  6.8500;

BuildingSurface:Detailed,
  L1_Zone_12_Roof_1,
  Roof,
  Interior Ceiling,
  L1_Zone_12,
  ,
  Adiabatic,
  ,
  NoSun,
  NoWind,
  ,
  4,
  11.5068,
  10.9728,
  6.8500,
  11.5068,
  10.5800,
  6.8500,
  11.5137,
  10.5800,
  6.8500,
  11.5137,
  10.9728,
  6.8500;

BuildingSurface:Detailed,
  L1_Zone_12_Wall_1,
  Wall,
  BIM2BEM_nonres_ext_wall,
  L1_Zone_12,
  ,
  Outdoors,
  ,
  SunExposed,
  WindExposed,
  ,
  4,
  7.5068,
  5.0738,
  6.8500,
  7.5068,
  5.0738,
  0.0000,
  13.9034,
  5.0738,
  0.0000,
  13.9034,
  5.0738,
  6.8500;

BuildingSurface:Detailed,
  L1_Zone_12_Wall_2,
  Wall,
  BIM2BEM_Interior_Wall,
  L1_Zone_12,
  ,
  Surface,
  L1_Zone_19_Wall_4,
  NoSun,
  NoWind,
  ,
  4,
  13.9034,
  5.0738,
  6.8500,
  13.9034,
  5.0738,
  0.0000,
  13.9034,
  8.5710,
  0.0000,
  13.9034,
  8.5710,
  6.8500;

BuildingSurface:Detailed,
  L1_Zone_12_Wall_3,
  Wall,
  BIM2BEM_Interior_Wall,
  L1_Zone_12,
  ,
  Adiabatic,
  ,
  NoSun,
  NoWind,
  ,
  4,
  13.9034,
  8.5710,
  6.8500,
  13.9034,
  8.5710,
  0.0000,
  13.9034,
  8.6720,
  0.0000,
  13.9034,
  8.6720,
  6.8500;

BuildingSurface:Detailed,
  L1_Zone_12_Wall_4,
  Wall,
  BIM2BEM_Interior_Wall,
  L1_Zone_12,
  ,
  Adiabatic,
  ,
  NoSun,
  NoWind,
  ,
  4,
  13.9034,
  8.6720,
  6.8500,
  13.9034,
  8.6720,
  0.0000,
  14.0044,
  8.6720,
  0.0000,
  14.0044,
  8.6720,
  6.8500;

BuildingSurface:Detailed,
  L1_Zone_12_Wall_5,
  Wall,
  BIM2BEM_Interior_Wall,
  L1_Zone_12,
  ,
  Surface,
  L1_Zone_19_Wall_3,
  NoSun,
  NoWind,
  ,
  4,
  14.0044,
  8.6720,
  6.8500,
  14.0044,
  8.6720,
  0.0000,
  20.9808,
  8.6720,
  0.0000,
  20.9808,
  8.6720,
  6.8500;

BuildingSurface:Detailed,
  L1_Zone_12_Wall_6,
  Wall,
  BIM2BEM_Interior_Wall,
  L1_Zone_12,
  ,
  Surface,
  L1_Zone_17_Wall_4,
  NoSun,
  NoWind,
  ,
  4,
  20.9808,
  8.6720,
  6.8500,
  20.9808,
  8.6720,
  0.0000,
  20.9808,
  10.9728,
  0.0000,
  20.9808,
  10.9728,
  6.8500;

BuildingSurface:Detailed,
  L1_Zone_12_Wall_7,
  Wall,
  BIM2BEM_Interior_Wall,
  L1_Zone_12,
  ,
  Adiabatic,
  ,
  NoSun,
  NoWind,
  ,
  4,
  17.8318,
  10.9728,
  6.8500,
  17.8318,
  10.9728,
  0.0000,
  17.7813,
  10.9728,
  0.0000,
  17.7813,
  10.9728,
  6.8500;

BuildingSurface:Detailed,
  L1_Zone_12_Wall_8,
  Wall,
  BIM2BEM_Interior_Wall,
  L1_Zone_12,
  ,
  Surface,
  L1_Zone_16_Wall_3,
  NoSun,
  NoWind,
  ,
  4,
  20.9808,
  10.9728,
  6.8500,
  20.9808,
  10.9728,
  0.0000,
  17.8318,
  10.9728,
  0.0000,
  17.8318,
  10.9728,
  6.8500;

BuildingSurface:Detailed,
  L1_Zone_12_Wall_9,
  Wall,
  BIM2BEM_Interior_Wall,
  L1_Zone_12,
  ,
  Adiabatic,
  ,
  NoSun,
  NoWind,
  ,
  4,
  14.5818,
  10.9728,
  6.8500,
  14.5818,
  10.9728,
  0.0000,
  14.5313,
  10.9728,
  0.0000,
  14.5313,
  10.9728,
  6.8500;

BuildingSurface:Detailed,
  L1_Zone_12_Wall_10,
  Wall,
  BIM2BEM_Interior_Wall,
  L1_Zone_12,
  ,
  Surface,
  L1_Zone_15_Wall_3,
  NoSun,
  NoWind,
  ,
  4,
  17.7308,
  10.9728,
  6.8500,
  17.7308,
  10.9728,
  0.0000,
  14.5818,
  10.9728,
  0.0000,
  14.5818,
  10.9728,
  6.8500;

BuildingSurface:Detailed,
  L1_Zone_12_Wall_11,
  Wall,
  BIM2BEM_Interior_Wall,
  L1_Zone_12,
  ,
  Adiabatic,
  ,
  NoSun,
  NoWind,
  ,
  4,
  17.7813,
  10.9728,
  6.8500,
  17.7813,
  10.9728,
  0.0000,
  17.7308,
  10.9728,
  0.0000,
  17.7308,
  10.9728,
  6.8500;

BuildingSurface:Detailed,
  L1_Zone_12_Wall_12,
  Wall,
  BIM2BEM_Interior_Wall,
  L1_Zone_12,
  ,
  Surface,
  L1_Zone_14_Wall_3,
  NoSun,
  NoWind,
  ,
  4,
  14.4808,
  10.9728,
  6.8500,
  14.4808,
  10.9728,
  0.0000,
  11.5068,
  10.9728,
  0.0000,
  11.5068,
  10.9728,
  6.8500;

BuildingSurface:Detailed,
  L1_Zone_12_Wall_13,
  Wall,
  BIM2BEM_Interior_Wall,
  L1_Zone_12,
  ,
  Adiabatic,
  ,
  NoSun,
  NoWind,
  ,
  4,
  14.5313,
  10.9728,
  6.8500,
  14.5313,
  10.9728,
  0.0000,
  14.4808,
  10.9728,
  0.0000,
  14.4808,
  10.9728,
  6.8500;

BuildingSurface:Detailed,
  L1_Zone_12_Wall_14,
  Wall,
  BIM2BEM_Interior_Wall,
  L1_Zone_12,
  ,
  Adiabatic,
  ,
  NoSun,
  NoWind,
  ,
  4,
  11.5068,
  10.6738,
  6.8500,
  11.5068,
  10.6738,
  0.0000,
  11.5068,
  10.5728,
  0.0000,
  11.5068,
  10.5728,
  6.8500;

BuildingSurface:Detailed,
  L1_Zone_12_Wall_15,
  Wall,
  BIM2BEM_Interior_Wall,
  L1_Zone_12,
  ,
  Surface,
  L1_Zone_13_Wall_4,
  NoSun,
  NoWind,
  ,
  4,
  11.5068,
  10.9728,
  6.8500,
  11.5068,
  10.9728,
  0.0000,
  11.5068,
  10.6738,
  0.0000,
  11.5068,
  10.6738,
  6.8500;

BuildingSurface:Detailed,
  L1_Zone_12_Wall_16,
  Wall,
  BIM2BEM_Interior_Wall,
  L1_Zone_12,
  ,
  Surface,
  L1_Zone_13_Wall_3,
  NoSun,
  NoWind,
  ,
  4,
  11.4058,
  10.5728,
  6.8500,
  11.4058,
  10.5728,
  0.0000,
  7.5068,
  10.5728,
  0.0000,
  7.5068,
  10.5728,
  6.8500;

BuildingSurface:Detailed,
  L1_Zone_12_Wall_17,
  Wall,
  BIM2BEM_Interior_Wall,
  L1_Zone_12,
  ,
  Adiabatic,
  ,
  NoSun,
  NoWind,
  ,
  4,
  11.5068,
  10.5728,
  6.8500,
  11.5068,
  10.5728,
  0.0000,
  11.4058,
  10.5728,
  0.0000,
  11.4058,
  10.5728,
  6.8500;

BuildingSurface:Detailed,
  L1_Zone_12_Wall_18,
  Wall,
  BIM2BEM_Interior_Wall,
  L1_Zone_12,
  ,
  Surface,
  L1_Zone_11_Wall_4,
  NoSun,
  NoWind,
  ,
  4,
  7.5068,
  10.5728,
  6.8500,
  7.5068,
  10.5728,
  0.0000,
  7.5068,
  5.0738,
  0.0000,
  7.5068,
  5.0738,
  6.8500;

BuildingSurface:Detailed,
  L2_Zone_20_Floor_1,
  Floor,
  BIM2BEM_int_slab_floor,
  L2_Zone_20,
  ,
  Surface,
  L1_Zone_2_Ceiling_1,
  NoSun,
  NoWind,
  ,
  4,
  -31.2942,
  9.9028,
  7.0000,
  -31.2942,
  8.1810,
  7.0000,
  -34.4932,
  8.1810,
  7.0000,
  -34.4932,
  9.9028,
  7.0000;

BuildingSurface:Detailed,
  L2_Zone_20_Floor_2,
  Floor,
  BIM2BEM_int_slab_floor,
  L2_Zone_20,
  ,
  Surface,
  L1_Zone_2_Ceiling_2,
  NoSun,
  NoWind,
  ,
  4,
  -31.2942,
  12.8328,
  7.0000,
  -31.2942,
  9.9028,
  7.0000,
  -32.8932,
  9.9028,
  7.0000,
  -32.8932,
  12.8328,
  7.0000;

BuildingSurface:Detailed,
  L2_Zone_20_Floor_3,
  Floor,
  BIM2BEM_int_slab_floor,
  L2_Zone_20,
  ,
  Surface,
  L1_Zone_1_Ceiling_1,
  NoSun,
  NoWind,
  ,
  4,
  -32.9942,
  12.9338,
  7.0000,
  -32.9942,
  10.0038,
  7.0000,
  -34.4932,
  10.0038,
  7.0000,
  -34.4932,
  12.9338,
  7.0000;

BuildingSurface:Detailed,
  L2_Zone_20_Floor_4,
  Floor,
  BIM2BEM_int_slab_floor,
  L2_Zone_20,
  ,
  Surface,
  L1_Zone_1_Ceiling_2,
  NoSun,
  NoWind,
  ,
  4,
  -31.2942,
  14.5728,
  7.0000,
  -31.2942,
  12.9338,
  7.0000,
  -34.4932,
  12.9338,
  7.0000,
  -34.4932,
  14.5728,
  7.0000;

BuildingSurface:Detailed,
  L2_Zone_20_Floor_5,
  Floor,
  Interior Floor,
  L2_Zone_20,
  ,
  Adiabatic,
  ,
  NoSun,
  NoWind,
  ,
  4,
  -32.8932,
  10.0038,
  7.0000,
  -32.8932,
  9.9028,
  7.0000,
  -34.4932,
  9.9028,
  7.0000,
  -34.4932,
  10.0038,
  7.0000;

BuildingSurface:Detailed,
  L2_Zone_20_Floor_6,
  Floor,
  Interior Floor,
  L2_Zone_20,
  ,
  Adiabatic,
  ,
  NoSun,
  NoWind,
  ,
  4,
  -32.8932,
  12.8328,
  7.0000,
  -32.8932,
  10.0038,
  7.0000,
  -32.9942,
  10.0038,
  7.0000,
  -32.9942,
  12.8328,
  7.0000;

BuildingSurface:Detailed,
  L2_Zone_20_Floor_7,
  Floor,
  Interior Floor,
  L2_Zone_20,
  ,
  Adiabatic,
  ,
  NoSun,
  NoWind,
  ,
  4,
  -31.2873,
  12.9338,
  7.0000,
  -31.2873,
  12.8328,
  7.0000,
  -32.9942,
  12.8328,
  7.0000,
  -32.9942,
  12.9338,
  7.0000;

BuildingSurface:Detailed,
  L2_Zone_20_Floor_8,
  Floor,
  Interior Floor,
  L2_Zone_20,
  ,
  Adiabatic,
  ,
  NoSun,
  NoWind,
  ,
  4,
  -31.2873,
  12.8328,
  7.0000,
  -31.2873,
  8.1810,
  7.0000,
  -31.2942,
  8.1810,
  7.0000,
  -31.2942,
  12.8328,
  7.0000;

BuildingSurface:Detailed,
  L2_Zone_20_Floor_9,
  Floor,
  Interior Floor,
  L2_Zone_20,
  ,
  Adiabatic,
  ,
  NoSun,
  NoWind,
  ,
  4,
  -31.2873,
  14.5728,
  7.0000,
  -31.2873,
  12.9338,
  7.0000,
  -31.2942,
  12.9338,
  7.0000,
  -31.2942,
  14.5728,
  7.0000;

BuildingSurface:Detailed,
  L2_Zone_20_Roof_1,
  Roof,
  BIM2BEM_nonres_roof,
  L2_Zone_20,
  ,
  Outdoors,
  ,
  SunExposed,
  WindExposed,
  ,
  4,
  -34.4932,
  14.5728,
  12.8500,
  -34.4932,
  8.1810,
  12.8500,
  -31.2873,
  8.1810,
  12.8500,
  -31.2873,
  14.5728,
  12.8500;

BuildingSurface:Detailed,
  L2_Zone_20_Wall_1,
  Wall,
  BIM2BEM_nonres_ext_wall,
  L2_Zone_20,
  ,
  Outdoors,
  ,
  SunExposed,
  WindExposed,
  ,
  4,
  -34.4932,
  14.5728,
  12.8500,
  -34.4932,
  14.5728,
  7.0000,
  -34.4932,
  8.1810,
  7.0000,
  -34.4932,
  8.1810,
  12.8500;

BuildingSurface:Detailed,
  L2_Zone_20_Wall_2,
  Wall,
  BIM2BEM_Interior_Wall,
  L2_Zone_20,
  ,
  Surface,
  L2_Zone_21_Wall_12,
  NoSun,
  NoWind,
  ,
  4,
  -34.4932,
  8.1810,
  12.8500,
  -34.4932,
  8.1810,
  7.0000,
  -31.2873,
  8.1810,
  7.0000,
  -31.2873,
  8.1810,
  12.8500;

BuildingSurface:Detailed,
  L2_Zone_20_Wall_3,
  Wall,
  BIM2BEM_Interior_Wall,
  L2_Zone_20,
  ,
  Surface,
  L2_Zone_21_Wall_11,
  NoSun,
  NoWind,
  ,
  4,
  -31.2873,
  8.1810,
  12.8500,
  -31.2873,
  8.1810,
  7.0000,
  -31.2873,
  14.5728,
  7.0000,
  -31.2873,
  14.5728,
  12.8500;

BuildingSurface:Detailed,
  L2_Zone_20_Wall_4,
  Wall,
  BIM2BEM_nonres_ext_wall,
  L2_Zone_20,
  ,
  Outdoors,
  ,
  SunExposed,
  WindExposed,
  ,
  4,
  -31.2873,
  14.5728,
  12.8500,
  -31.2873,
  14.5728,
  7.0000,
  -34.4932,
  14.5728,
  7.0000,
  -34.4932,
  14.5728,
  12.8500;

BuildingSurface:Detailed,
  L2_Zone_21_Floor_1,
  Floor,
  BIM2BEM_int_slab_floor,
  L2_Zone_21,
  ,
  Surface,
  L1_Zone_7_Ceiling_1,
  NoSun,
  NoWind,
  ,
  4,
  -27.9942,
  -1.9273,
  7.0000,
  -27.9942,
  -5.8263,
  7.0000,
  -34.4932,
  -5.8263,
  7.0000,
  -34.4932,
  -1.9273,
  7.0000;

BuildingSurface:Detailed,
  L2_Zone_21_Floor_2,
  Floor,
  BIM2BEM_int_slab_floor,
  L2_Zone_21,
  ,
  Surface,
  L1_Zone_6_Ceiling_1,
  NoSun,
  NoWind,
  ,
  4,
  -27.9942,
  1.5727,
  7.0000,
  -27.9942,
  -1.8263,
  7.0000,
  -34.4932,
  -1.8263,
  7.0000,
  -34.4932,
  1.5727,
  7.0000;

BuildingSurface:Detailed,
  L2_Zone_21_Floor_3,
  Floor,
  BIM2BEM_int_slab_floor,
  L2_Zone_21,
  ,
  Surface,
  L1_Zone_5_Ceiling_1,
  NoSun,
  NoWind,
  ,
  4,
  -27.9942,
  3.5727,
  7.0000,
  -27.9942,
  1.6737,
  7.0000,
  -34.4932,
  1.6737,
  7.0000,
  -34.4932,
  3.5727,
  7.0000;

BuildingSurface:Detailed,
  L2_Zone_21_Floor_4,
  Floor,
  BIM2BEM_int_slab_floor,
  L2_Zone_21,
  ,
  Surface,
  L1_Zone_4_Ceiling_1,
  NoSun,
  NoWind,
  ,
  4,
  -27.9942,
  8.0728,
  7.0000,
  -27.9942,
  3.6737,
  7.0000,
  -34.4932,
  3.6737,
  7.0000,
  -34.4932,
  8.0728,
  7.0000;

BuildingSurface:Detailed,
  L2_Zone_21_Floor_5,
  Floor,
  BIM2BEM_int_slab_floor,
  L2_Zone_21,
  ,
  Surface,
  L1_Zone_3_Ceiling_1,
  NoSun,
  NoWind,
  ,
  4,
  -27.9942,
  14.5728,
  7.0000,
  -27.9942,
  8.1738,
  7.0000,
  -31.1863,
  8.1738,
  7.0000,
  -31.1863,
  14.5728,
  7.0000;

BuildingSurface:Detailed,
  L2_Zone_21_Floor_6,
  Floor,
  BIM2BEM_int_slab_floor,
  L2_Zone_21,
  ,
  Surface,
  L1_Zone_8_Ceiling_1,
  NoSun,
  NoWind,
  ,
  4,
  -9.9944,
  14.5728,
  7.0000,
  -9.9944,
  4.9728,
  7.0000,
  -27.8932,
  4.9728,
  7.0000,
  -27.8932,
  14.5728,
  7.0000;

BuildingSurface:Detailed,
  L2_Zone_21_Floor_7,
  Floor,
  BIM2BEM_int_slab_floor,
  L2_Zone_21,
  ,
  Surface,
  L1_Zone_8_Ceiling_2,
  NoSun,
  NoWind,
  ,
  4,
  -4.5873,
  4.9728,
  7.0000,
  -4.5873,
  -5.8263,
  7.0000,
  -27.8932,
  -5.8263,
  7.0000,
  -27.8932,
  4.9728,
  7.0000;

BuildingSurface:Detailed,
  L2_Zone_21_Floor_8,
  Floor,
  BIM2BEM_int_slab_floor,
  L2_Zone_21,
  ,
  Surface,
  L1_Zone_9_Ceiling_1,
  NoSun,
  NoWind,
  ,
  4,
  -4.5873,
  14.5728,
  7.0000,
  -4.5873,
  5.0738,
  7.0000,
  -9.8934,
  5.0738,
  7.0000,
  -9.8934,
  14.5728,
  7.0000;

BuildingSurface:Detailed,
  L2_Zone_21_Floor_9,
  Floor,
  Interior Floor,
  L2_Zone_21,
  ,
  Adiabatic,
  ,
  NoSun,
  NoWind,
  ,
  4,
  -27.8932,
  -1.8263,
  7.0000,
  -27.8932,
  -1.9273,
  7.0000,
  -34.4932,
  -1.9273,
  7.0000,
  -34.4932,
  -1.8263,
  7.0000;

BuildingSurface:Detailed,
  L2_Zone_21_Floor_10,
  Floor,
  Interior Floor,
  L2_Zone_21,
  ,
  Adiabatic,
  ,
  NoSun,
  NoWind,
  ,
  4,
  -27.8932,
  1.6737,
  7.0000,
  -27.8932,
  1.5727,
  7.0000,
  -34.4932,
  1.5727,
  7.0000,
  -34.4932,
  1.6737,
  7.0000;

BuildingSurface:Detailed,
  L2_Zone_21_Floor_11,
  Floor,
  Interior Floor,
  L2_Zone_21,
  ,
  Adiabatic,
  ,
  NoSun,
  NoWind,
  ,
  4,
  -27.8932,
  3.6737,
  7.0000,
  -27.8932,
  3.5727,
  7.0000,
  -34.4932,
  3.5727,
  7.0000,
  -34.4932,
  3.6737,
  7.0000;

BuildingSurface:Detailed,
  L2_Zone_21_Floor_12,
  Floor,
  Interior Floor,
  L2_Zone_21,
  ,
  Adiabatic,
  ,
  NoSun,
  NoWind,
  ,
  4,
  -27.8932,
  8.0800,
  7.0000,
  -27.8932,
  8.0728,
  7.0000,
  -34.4932,
  8.0728,
  7.0000,
  -34.4932,
  8.0800,
  7.0000;

BuildingSurface:Detailed,
  L2_Zone_21_Floor_13,
  Floor,
  Interior Floor,
  L2_Zone_21,
  ,
  Adiabatic,
  ,
  NoSun,
  NoWind,
  ,
  4,
  -27.8932,
  8.1738,
  7.0000,
  -27.8932,
  8.0800,
  7.0000,
  -31.1863,
  8.0800,
  7.0000,
  -31.1863,
  8.1738,
  7.0000;

BuildingSurface:Detailed,
  L2_Zone_21_Floor_14,
  Floor,
  Interior Floor,
  L2_Zone_21,
  ,
  Adiabatic,
  ,
  NoSun,
  NoWind,
  ,
  4,
  -27.8932,
  -1.9273,
  7.0000,
  -27.8932,
  -5.8263,
  7.0000,
  -27.9942,
  -5.8263,
  7.0000,
  -27.9942,
  -1.9273,
  7.0000;

BuildingSurface:Detailed,
  L2_Zone_21_Floor_15,
  Floor,
  Interior Floor,
  L2_Zone_21,
  ,
  Adiabatic,
  ,
  NoSun,
  NoWind,
  ,
  4,
  -27.8932,
  1.5727,
  7.0000,
  -27.8932,
  -1.8263,
  7.0000,
  -27.9942,
  -1.8263,
  7.0000,
  -27.9942,
  1.5727,
  7.0000;

BuildingSurface:Detailed,
  L2_Zone_21_Floor_16,
  Floor,
  Interior Floor,
  L2_Zone_21,
  ,
  Adiabatic,
  ,
  NoSun,
  NoWind,
  ,
  4,
  -27.8932,
  3.5727,
  7.0000,
  -27.8932,
  1.6737,
  7.0000,
  -27.9942,
  1.6737,
  7.0000,
  -27.9942,
  3.5727,
  7.0000;

BuildingSurface:Detailed,
  L2_Zone_21_Floor_17,
  Floor,
  Interior Floor,
  L2_Zone_21,
  ,
  Adiabatic,
  ,
  NoSun,
  NoWind,
  ,
  4,
  -27.8932,
  8.0728,
  7.0000,
  -27.8932,
  3.6737,
  7.0000,
  -27.9942,
  3.6737,
  7.0000,
  -27.9942,
  8.0728,
  7.0000;

BuildingSurface:Detailed,
  L2_Zone_21_Floor_18,
  Floor,
  Interior Floor,
  L2_Zone_21,
  ,
  Adiabatic,
  ,
  NoSun,
  NoWind,
  ,
  4,
  -27.8932,
  14.5728,
  7.0000,
  -27.8932,
  8.1738,
  7.0000,
  -27.9942,
  8.1738,
  7.0000,
  -27.9942,
  14.5728,
  7.0000;

BuildingSurface:Detailed,
  L2_Zone_21_Floor_19,
  Floor,
  Interior Floor,
  L2_Zone_21,
  ,
  Adiabatic,
  ,
  NoSun,
  NoWind,
  ,
  4,
  -9.8934,
  14.5728,
  7.0000,
  -9.8934,
  5.0738,
  7.0000,
  -9.9944,
  5.0738,
  7.0000,
  -9.9944,
  14.5728,
  7.0000;

BuildingSurface:Detailed,
  L2_Zone_21_Floor_20,
  Floor,
  Interior Floor,
  L2_Zone_21,
  ,
  Adiabatic,
  ,
  NoSun,
  NoWind,
  ,
  4,
  -4.5873,
  5.0738,
  7.0000,
  -4.5873,
  4.9728,
  7.0000,
  -9.9944,
  4.9728,
  7.0000,
  -9.9944,
  5.0738,
  7.0000;

BuildingSurface:Detailed,
  L2_Zone_21_Roof_1,
  Roof,
  BIM2BEM_nonres_roof,
  L2_Zone_21,
  ,
  Outdoors,
  ,
  SunExposed,
  WindExposed,
  ,
  4,
  -34.4932,
  8.0800,
  12.8500,
  -34.4932,
  -5.8263,
  12.8500,
  -4.5873,
  -5.8263,
  12.8500,
  -4.5873,
  8.0800,
  12.8500;

BuildingSurface:Detailed,
  L2_Zone_21_Roof_2,
  Roof,
  BIM2BEM_nonres_roof,
  L2_Zone_21,
  ,
  Outdoors,
  ,
  SunExposed,
  WindExposed,
  ,
  4,
  -31.1863,
  14.5728,
  12.8500,
  -31.1863,
  8.0800,
  12.8500,
  -4.5873,
  8.0800,
  12.8500,
  -4.5873,
  14.5728,
  12.8500;

BuildingSurface:Detailed,
  L2_Zone_21_Wall_1,
  Wall,
  BIM2BEM_nonres_ext_wall,
  L2_Zone_21,
  ,
  Outdoors,
  ,
  SunExposed,
  WindExposed,
  ,
  4,
  -34.4932,
  -5.8263,
  12.8500,
  -34.4932,
  -5.8263,
  7.0000,
  -4.5873,
  -5.8263,
  7.0000,
  -4.5873,
  -5.8263,
  12.8500;

BuildingSurface:Detailed,
  L2_Zone_21_Wall_2,
  Wall,
  BIM2BEM_Interior_Wall,
  L2_Zone_21,
  ,
  Surface,
  L2_Zone_25_Wall_2,
  NoSun,
  NoWind,
  ,
  4,
  -4.5873,
  -5.8263,
  12.8500,
  -4.5873,
  -5.8263,
  7.0000,
  -4.5873,
  4.9728,
  7.0000,
  -4.5873,
  4.9728,
  12.8500;

BuildingSurface:Detailed,
  L2_Zone_21_Wall_3,
  Wall,
  BIM2BEM_Interior_Wall,
  L2_Zone_21,
  ,
  Adiabatic,
  ,
  NoSun,
  NoWind,
  ,
  4,
  -4.5873,
  4.9728,
  12.8500,
  -4.5873,
  4.9728,
  7.0000,
  -4.5873,
  5.0233,
  7.0000,
  -4.5873,
  5.0233,
  12.8500;

BuildingSurface:Detailed,
  L2_Zone_21_Wall_4,
  Wall,
  BIM2BEM_Interior_Wall,
  L2_Zone_21,
  ,
  Adiabatic,
  ,
  NoSun,
  NoWind,
  ,
  4,
  -4.5873,
  5.0233,
  12.8500,
  -4.5873,
  5.0233,
  7.0000,
  -4.5873,
  5.0738,
  7.0000,
  -4.5873,
  5.0738,
  12.8500;

BuildingSurface:Detailed,
  L2_Zone_21_Wall_5,
  Wall,
  BIM2BEM_Interior_Wall,
  L2_Zone_21,
  ,
  Surface,
  L2_Zone_27_Wall_20,
  NoSun,
  NoWind,
  ,
  4,
  -4.5873,
  5.0738,
  12.8500,
  -4.5873,
  5.0738,
  7.0000,
  -4.5873,
  7.3800,
  7.0000,
  -4.5873,
  7.3800,
  12.8500;

BuildingSurface:Detailed,
  L2_Zone_21_Wall_6,
  Wall,
  BIM2BEM_Interior_Wall,
  L2_Zone_21,
  ,
  Adiabatic,
  ,
  NoSun,
  NoWind,
  ,
  4,
  -4.5873,
  7.3800,
  12.8500,
  -4.5873,
  7.3800,
  7.0000,
  -4.5873,
  7.4305,
  7.0000,
  -4.5873,
  7.4305,
  12.8500;

BuildingSurface:Detailed,
  L2_Zone_21_Wall_7,
  Wall,
  BIM2BEM_Interior_Wall,
  L2_Zone_21,
  ,
  Adiabatic,
  ,
  NoSun,
  NoWind,
  ,
  4,
  -4.5873,
  7.4305,
  12.8500,
  -4.5873,
  7.4305,
  7.0000,
  -4.5873,
  7.4810,
  7.0000,
  -4.5873,
  7.4810,
  12.8500;

BuildingSurface:Detailed,
  L2_Zone_21_Wall_8,
  Wall,
  BIM2BEM_Interior_Wall,
  L2_Zone_21,
  ,
  Surface,
  L2_Zone_22_Wall_1,
  NoSun,
  NoWind,
  ,
  4,
  -4.5873,
  7.4810,
  12.8500,
  -4.5873,
  7.4810,
  7.0000,
  -4.5873,
  14.5728,
  7.0000,
  -4.5873,
  14.5728,
  12.8500;

BuildingSurface:Detailed,
  L2_Zone_21_Wall_9,
  Wall,
  BIM2BEM_nonres_ext_wall,
  L2_Zone_21,
  ,
  Outdoors,
  ,
  SunExposed,
  WindExposed,
  ,
  4,
  -4.5873,
  14.5728,
  12.8500,
  -4.5873,
  14.5728,
  7.0000,
  -31.1863,
  14.5728,
  7.0000,
  -31.1863,
  14.5728,
  12.8500;

BuildingSurface:Detailed,
  L2_Zone_21_Wall_10,
  Wall,
  BIM2BEM_Interior_Wall,
  L2_Zone_21,
  ,
  Adiabatic,
  ,
  NoSun,
  NoWind,
  ,
  4,
  -31.1863,
  8.1810,
  12.8500,
  -31.1863,
  8.1810,
  7.0000,
  -31.1863,
  8.0800,
  7.0000,
  -31.1863,
  8.0800,
  12.8500;

BuildingSurface:Detailed,
  L2_Zone_21_Wall_11,
  Wall,
  BIM2BEM_Interior_Wall,
  L2_Zone_21,
  ,
  Surface,
  L2_Zone_20_Wall_3,
  NoSun,
  NoWind,
  ,
  4,
  -31.1863,
  14.5728,
  12.8500,
  -31.1863,
  14.5728,
  7.0000,
  -31.1863,
  8.1810,
  7.0000,
  -31.1863,
  8.1810,
  12.8500;

BuildingSurface:Detailed,
  L2_Zone_21_Wall_12,
  Wall,
  BIM2BEM_Interior_Wall,
  L2_Zone_21,
  ,
  Surface,
  L2_Zone_20_Wall_2,
  NoSun,
  NoWind,
  ,
  4,
  -31.2873,
  8.0800,
  12.8500,
  -31.2873,
  8.0800,
  7.0000,
  -34.4932,
  8.0800,
  7.0000,
  -34.4932,
  8.0800,
  12.8500;

BuildingSurface:Detailed,
  L2_Zone_21_Wall_13,
  Wall,
  BIM2BEM_Interior_Wall,
  L2_Zone_21,
  ,
  Adiabatic,
  ,
  NoSun,
  NoWind,
  ,
  4,
  -31.1863,
  8.0800,
  12.8500,
  -31.1863,
  8.0800,
  7.0000,
  -31.2873,
  8.0800,
  7.0000,
  -31.2873,
  8.0800,
  12.8500;

BuildingSurface:Detailed,
  L2_Zone_21_Wall_14,
  Wall,
  BIM2BEM_nonres_ext_wall,
  L2_Zone_21,
  ,
  Outdoors,
  ,
  SunExposed,
  WindExposed,
  ,
  4,
  -34.4932,
  8.0800,
  12.8500,
  -34.4932,
  8.0800,
  7.0000,
  -34.4932,
  -5.8263,
  7.0000,
  -34.4932,
  -5.8263,
  12.8500;

BuildingSurface:Detailed,
  L2_Zone_22_Floor_1,
  Floor,
  BIM2BEM_int_slab_floor,
  L2_Zone_22,
  ,
  Surface,
  L1_Zone_9_Ceiling_3,
  NoSun,
  NoWind,
  ,
  4,
  -3.9942,
  14.5728,
  7.0000,
  -3.9942,
  7.4810,
  7.0000,
  -4.4863,
  7.4810,
  7.0000,
  -4.4863,
  14.5728,
  7.0000;

BuildingSurface:Detailed,
  L2_Zone_22_Floor_2,
  Floor,
  BIM2BEM_int_slab_floor,
  L2_Zone_22,
  ,
  Surface,
  L1_Zone_10_Ceiling_3,
  NoSun,
  NoWind,
  ,
  4,
  -1.0873,
  14.5728,
  7.0000,
  -1.0873,
  7.4810,
  7.0000,
  -3.8932,
  7.4810,
  7.0000,
  -3.8932,
  14.5728,
  7.0000;

BuildingSurface:Detailed,
  L2_Zone_22_Floor_3,
  Floor,
  Interior Floor,
  L2_Zone_22,
  ,
  Adiabatic,
  ,
  NoSun,
  NoWind,
  ,
  4,
  -3.8932,
  14.5728,
  7.0000,
  -3.8932,
  7.4810,
  7.0000,
  -3.9942,
  7.4810,
  7.0000,
  -3.9942,
  14.5728,
  7.0000;

BuildingSurface:Detailed,
  L2_Zone_22_Roof_1,
  Roof,
  BIM2BEM_nonres_roof,
  L2_Zone_22,
  ,
  Outdoors,
  ,
  SunExposed,
  WindExposed,
  ,
  4,
  -4.4863,
  14.5728,
  12.8500,
  -4.4863,
  7.4810,
  12.8500,
  -1.0873,
  7.4810,
  12.8500,
  -1.0873,
  14.5728,
  12.8500;

BuildingSurface:Detailed,
  L2_Zone_22_Wall_1,
  Wall,
  BIM2BEM_Interior_Wall,
  L2_Zone_22,
  ,
  Surface,
  L2_Zone_21_Wall_8,
  NoSun,
  NoWind,
  ,
  4,
  -4.4863,
  14.5728,
  12.8500,
  -4.4863,
  14.5728,
  7.0000,
  -4.4863,
  7.4810,
  7.0000,
  -4.4863,
  7.4810,
  12.8500;

BuildingSurface:Detailed,
  L2_Zone_22_Wall_2,
  Wall,
  BIM2BEM_Interior_Wall,
  L2_Zone_22,
  ,
  Surface,
  L2_Zone_27_Wall_18,
  NoSun,
  NoWind,
  ,
  4,
  -4.4863,
  7.4810,
  12.8500,
  -4.4863,
  7.4810,
  7.0000,
  -1.0873,
  7.4810,
  7.0000,
  -1.0873,
  7.4810,
  12.8500;

BuildingSurface:Detailed,
  L2_Zone_22_Wall_3,
  Wall,
  BIM2BEM_Interior_Wall,
  L2_Zone_22,
  ,
  Surface,
  L2_Zone_24_Wall_4,
  NoSun,
  NoWind,
  ,
  4,
  -1.0873,
  7.4810,
  12.8500,
  -1.0873,
  7.4810,
  7.0000,
  -1.0873,
  10.5800,
  7.0000,
  -1.0873,
  10.5800,
  12.8500;

BuildingSurface:Detailed,
  L2_Zone_22_Wall_4,
  Wall,
  BIM2BEM_Interior_Wall,
  L2_Zone_22,
  ,
  Adiabatic,
  ,
  NoSun,
  NoWind,
  ,
  4,
  -1.0873,
  10.5800,
  12.8500,
  -1.0873,
  10.5800,
  7.0000,
  -1.0873,
  10.6810,
  7.0000,
  -1.0873,
  10.6810,
  12.8500;

BuildingSurface:Detailed,
  L2_Zone_22_Wall_5,
  Wall,
  BIM2BEM_Interior_Wall,
  L2_Zone_22,
  ,
  Surface,
  L2_Zone_23_Wall_4,
  NoSun,
  NoWind,
  ,
  4,
  -1.0873,
  10.6810,
  12.8500,
  -1.0873,
  10.6810,
  7.0000,
  -1.0873,
  14.5728,
  7.0000,
  -1.0873,
  14.5728,
  12.8500;

BuildingSurface:Detailed,
  L2_Zone_22_Wall_6,
  Wall,
  BIM2BEM_nonres_ext_wall,
  L2_Zone_22,
  ,
  Outdoors,
  ,
  SunExposed,
  WindExposed,
  ,
  4,
  -1.0873,
  14.5728,
  12.8500,
  -1.0873,
  14.5728,
  7.0000,
  -4.4863,
  14.5728,
  7.0000,
  -4.4863,
  14.5728,
  12.8500;

BuildingSurface:Detailed,
  L2_Zone_25_Floor_1,
  Floor,
  BIM2BEM_int_slab_floor,
  L2_Zone_25,
  ,
  Surface,
  L1_Zone_8_Ceiling_3,
  NoSun,
  NoWind,
  ,
  4,
  2.0058,
  4.9728,
  7.0000,
  2.0058,
  -5.8263,
  7.0000,
  -4.4863,
  -5.8263,
  7.0000,
  -4.4863,
  4.9728,
  7.0000;

BuildingSurface:Detailed,
  L2_Zone_25_Roof_1,
  Roof,
  BIM2BEM_nonres_roof,
  L2_Zone_25,
  ,
  Outdoors,
  ,
  SunExposed,
  WindExposed,
  ,
  4,
  -4.4863,
  4.9728,
  12.8500,
  -4.4863,
  -5.8263,
  12.8500,
  2.0058,
  -5.8263,
  12.8500,
  2.0058,
  4.9728,
  12.8500;

BuildingSurface:Detailed,
  L2_Zone_25_Wall_1,
  Wall,
  BIM2BEM_Interior_Wall,
  L2_Zone_25,
  ,
  Surface,
  L2_Zone_27_Wall_1,
  NoSun,
  NoWind,
  ,
  4,
  2.0058,
  4.9728,
  12.8500,
  2.0058,
  4.9728,
  7.0000,
  -4.4863,
  4.9728,
  7.0000,
  -4.4863,
  4.9728,
  12.8500;

BuildingSurface:Detailed,
  L2_Zone_25_Wall_2,
  Wall,
  BIM2BEM_Interior_Wall,
  L2_Zone_25,
  ,
  Surface,
  L2_Zone_21_Wall_2,
  NoSun,
  NoWind,
  ,
  4,
  -4.4863,
  4.9728,
  12.8500,
  -4.4863,
  4.9728,
  7.0000,
  -4.4863,
  -5.8263,
  7.0000,
  -4.4863,
  -5.8263,
  12.8500;

BuildingSurface:Detailed,
  L2_Zone_25_Wall_3,
  Wall,
  BIM2BEM_nonres_ext_wall,
  L2_Zone_25,
  ,
  Outdoors,
  ,
  SunExposed,
  WindExposed,
  ,
  4,
  -4.4863,
  -5.8263,
  12.8500,
  -4.4863,
  -5.8263,
  7.0000,
  2.0058,
  -5.8263,
  7.0000,
  2.0058,
  -5.8263,
  12.8500;

BuildingSurface:Detailed,
  L2_Zone_25_Wall_4,
  Wall,
  BIM2BEM_Interior_Wall,
  L2_Zone_25,
  ,
  Adiabatic,
  ,
  NoSun,
  NoWind,
  ,
  4,
  2.0058,
  -5.8263,
  12.8500,
  2.0058,
  -5.8263,
  7.0000,
  2.0058,
  -0.8262,
  7.0000,
  2.0058,
  -0.8262,
  12.8500;

BuildingSurface:Detailed,
  L2_Zone_25_Wall_5,
  Wall,
  BIM2BEM_Interior_Wall,
  L2_Zone_25,
  ,
  Surface,
  L2_Zone_28_Wall_2,
  NoSun,
  NoWind,
  ,
  4,
  2.0058,
  -0.8262,
  12.8500,
  2.0058,
  -0.8262,
  7.0000,
  2.0058,
  4.9728,
  7.0000,
  2.0058,
  4.9728,
  12.8500;

BuildingSurface:Detailed,
  L2_Zone_24_Floor_1,
  Floor,
  BIM2BEM_int_slab_floor,
  L2_Zone_24,
  ,
  Surface,
  L1_Zone_10_Ceiling_4,
  NoSun,
  NoWind,
  ,
  4,
  1.4126,
  10.5800,
  7.0000,
  1.4126,
  7.4810,
  7.0000,
  -0.9863,
  7.4810,
  7.0000,
  -0.9863,
  10.5800,
  7.0000;

BuildingSurface:Detailed,
  L2_Zone_24_Roof_1,
  Roof,
  BIM2BEM_nonres_roof,
  L2_Zone_24,
  ,
  Outdoors,
  ,
  SunExposed,
  WindExposed,
  ,
  4,
  -0.9863,
  10.5800,
  12.8500,
  -0.9863,
  7.4810,
  12.8500,
  1.4126,
  7.4810,
  12.8500,
  1.4126,
  10.5800,
  12.8500;

BuildingSurface:Detailed,
  L2_Zone_24_Wall_1,
  Wall,
  BIM2BEM_Interior_Wall,
  L2_Zone_24,
  ,
  Surface,
  L2_Zone_27_Wall_16,
  NoSun,
  NoWind,
  ,
  4,
  -0.9863,
  7.4810,
  12.8500,
  -0.9863,
  7.4810,
  7.0000,
  1.4126,
  7.4810,
  7.0000,
  1.4126,
  7.4810,
  12.8500;

BuildingSurface:Detailed,
  L2_Zone_24_Wall_2,
  Wall,
  BIM2BEM_Interior_Wall,
  L2_Zone_24,
  ,
  Surface,
  L2_Zone_27_Wall_13,
  NoSun,
  NoWind,
  ,
  4,
  1.4126,
  7.4810,
  12.8500,
  1.4126,
  7.4810,
  7.0000,
  1.4126,
  10.5800,
  7.0000,
  1.4126,
  10.5800,
  12.8500;

BuildingSurface:Detailed,
  L2_Zone_24_Wall_3,
  Wall,
  BIM2BEM_Interior_Wall,
  L2_Zone_24,
  ,
  Surface,
  L2_Zone_23_Wall_5,
  NoSun,
  NoWind,
  ,
  4,
  1.4126,
  10.5800,
  12.8500,
  1.4126,
  10.5800,
  7.0000,
  -0.9863,
  10.5800,
  7.0000,
  -0.9863,
  10.5800,
  12.8500;

BuildingSurface:Detailed,
  L2_Zone_24_Wall_4,
  Wall,
  BIM2BEM_Interior_Wall,
  L2_Zone_24,
  ,
  Surface,
  L2_Zone_22_Wall_3,
  NoSun,
  NoWind,
  ,
  4,
  -0.9863,
  10.5800,
  12.8500,
  -0.9863,
  10.5800,
  7.0000,
  -0.9863,
  7.4810,
  7.0000,
  -0.9863,
  7.4810,
  12.8500;

BuildingSurface:Detailed,
  L2_Zone_23_Floor_1,
  Floor,
  BIM2BEM_int_slab_floor,
  L2_Zone_23,
  ,
  Surface,
  L1_Zone_10_Ceiling_5,
  NoSun,
  NoWind,
  ,
  4,
  1.4126,
  14.5728,
  7.0000,
  1.4126,
  10.6810,
  7.0000,
  -0.9863,
  10.6810,
  7.0000,
  -0.9863,
  14.5728,
  7.0000;

BuildingSurface:Detailed,
  L2_Zone_23_Roof_1,
  Roof,
  BIM2BEM_nonres_roof,
  L2_Zone_23,
  ,
  Outdoors,
  ,
  SunExposed,
  WindExposed,
  ,
  4,
  -0.9863,
  14.5728,
  12.8500,
  -0.9863,
  10.6810,
  12.8500,
  1.4126,
  10.6810,
  12.8500,
  1.4126,
  14.5728,
  12.8500;

BuildingSurface:Detailed,
  L2_Zone_23_Wall_1,
  Wall,
  BIM2BEM_Interior_Wall,
  L2_Zone_23,
  ,
  Surface,
  L2_Zone_27_Wall_11,
  NoSun,
  NoWind,
  ,
  4,
  1.4126,
  10.6810,
  12.8500,
  1.4126,
  10.6810,
  7.0000,
  1.4126,
  13.0800,
  7.0000,
  1.4126,
  13.0800,
  12.8500;

BuildingSurface:Detailed,
  L2_Zone_23_Wall_2,
  Wall,
  BIM2BEM_Interior_Wall,
  L2_Zone_23,
  ,
  Adiabatic,
  ,
  NoSun,
  NoWind,
  ,
  4,
  1.4126,
  13.0800,
  12.8500,
  1.4126,
  13.0800,
  7.0000,
  1.4126,
  14.5728,
  7.0000,
  1.4126,
  14.5728,
  12.8500;

BuildingSurface:Detailed,
  L2_Zone_23_Wall_3,
  Wall,
  BIM2BEM_nonres_ext_wall,
  L2_Zone_23,
  ,
  Outdoors,
  ,
  SunExposed,
  WindExposed,
  ,
  4,
  1.4126,
  14.5728,
  12.8500,
  1.4126,
  14.5728,
  7.0000,
  -0.9863,
  14.5728,
  7.0000,
  -0.9863,
  14.5728,
  12.8500;

BuildingSurface:Detailed,
  L2_Zone_23_Wall_4,
  Wall,
  BIM2BEM_Interior_Wall,
  L2_Zone_23,
  ,
  Surface,
  L2_Zone_22_Wall_5,
  NoSun,
  NoWind,
  ,
  4,
  -0.9863,
  14.5728,
  12.8500,
  -0.9863,
  14.5728,
  7.0000,
  -0.9863,
  10.6810,
  7.0000,
  -0.9863,
  10.6810,
  12.8500;

BuildingSurface:Detailed,
  L2_Zone_23_Wall_5,
  Wall,
  BIM2BEM_Interior_Wall,
  L2_Zone_23,
  ,
  Surface,
  L2_Zone_24_Wall_3,
  NoSun,
  NoWind,
  ,
  4,
  -0.9863,
  10.6810,
  12.8500,
  -0.9863,
  10.6810,
  7.0000,
  1.4126,
  10.6810,
  7.0000,
  1.4126,
  10.6810,
  12.8500;

BuildingSurface:Detailed,
  L2_Zone_27_Floor_1,
  Floor,
  BIM2BEM_int_slab_floor,
  L2_Zone_27,
  ,
  Surface,
  L1_Zone_9_Ceiling_2,
  NoSun,
  NoWind,
  ,
  4,
  -3.9942,
  7.3800,
  7.0000,
  -3.9942,
  5.0738,
  7.0000,
  -4.4863,
  5.0738,
  7.0000,
  -4.4863,
  7.3800,
  7.0000;

BuildingSurface:Detailed,
  L2_Zone_27_Floor_2,
  Floor,
  BIM2BEM_int_slab_floor,
  L2_Zone_27,
  ,
  Surface,
  L1_Zone_10_Ceiling_1,
  NoSun,
  NoWind,
  ,
  4,
  2.0058,
  7.3800,
  7.0000,
  2.0058,
  5.0738,
  7.0000,
  -3.8932,
  5.0738,
  7.0000,
  -3.8932,
  7.3800,
  7.0000;

BuildingSurface:Detailed,
  L2_Zone_27_Floor_3,
  Floor,
  BIM2BEM_int_slab_floor,
  L2_Zone_27,
  ,
  Surface,
  L1_Zone_10_Ceiling_2,
  NoSun,
  NoWind,
  ,
  4,
  2.0058,
  13.0800,
  7.0000,
  2.0058,
  7.3800,
  7.0000,
  1.5136,
  7.3800,
  7.0000,
  1.5136,
  13.0800,
  7.0000;

BuildingSurface:Detailed,
  L2_Zone_27_Floor_4,
  Floor,
  BIM2BEM_int_slab_floor,
  L2_Zone_27,
  ,
  Surface,
  L1_Zone_11_Ceiling_1,
  NoSun,
  NoWind,
  ,
  4,
  7.4058,
  13.0800,
  7.0000,
  7.4058,
  5.0738,
  7.0000,
  2.1068,
  5.0738,
  7.0000,
  2.1068,
  13.0800,
  7.0000;

BuildingSurface:Detailed,
  L2_Zone_27_Floor_5,
  Floor,
  Interior Floor,
  L2_Zone_27,
  ,
  Adiabatic,
  ,
  NoSun,
  NoWind,
  ,
  4,
  -3.8932,
  7.3800,
  7.0000,
  -3.8932,
  5.0738,
  7.0000,
  -3.9942,
  5.0738,
  7.0000,
  -3.9942,
  7.3800,
  7.0000;

BuildingSurface:Detailed,
  L2_Zone_27_Floor_6,
  Floor,
  Interior Floor,
  L2_Zone_27,
  ,
  Adiabatic,
  ,
  NoSun,
  NoWind,
  ,
  4,
  2.1068,
  13.0800,
  7.0000,
  2.1068,
  5.0738,
  7.0000,
  2.0058,
  5.0738,
  7.0000,
  2.0058,
  13.0800,
  7.0000;

BuildingSurface:Detailed,
  L2_Zone_27_Roof_1,
  Roof,
  BIM2BEM_nonres_roof,
  L2_Zone_27,
  ,
  Outdoors,
  ,
  SunExposed,
  WindExposed,
  ,
  4,
  -4.4863,
  7.3800,
  12.8500,
  -4.4863,
  5.0738,
  12.8500,
  7.4058,
  5.0738,
  12.8500,
  7.4058,
  7.3800,
  12.8500;

BuildingSurface:Detailed,
  L2_Zone_27_Roof_2,
  Roof,
  BIM2BEM_nonres_roof,
  L2_Zone_27,
  ,
  Outdoors,
  ,
  SunExposed,
  WindExposed,
  ,
  4,
  1.5136,
  13.0800,
  12.8500,
  1.5136,
  7.3800,
  12.8500,
  7.4058,
  7.3800,
  12.8500,
  7.4058,
  13.0800,
  12.8500;

BuildingSurface:Detailed,
  L2_Zone_27_Wall_1,
  Wall,
  BIM2BEM_Interior_Wall,
  L2_Zone_27,
  ,
  Surface,
  L2_Zone_25_Wall_1,
  NoSun,
  NoWind,
  ,
  4,
  -4.4863,
  5.0738,
  12.8500,
  -4.4863,
  5.0738,
  7.0000,
  2.0058,
  5.0738,
  7.0000,
  2.0058,
  5.0738,
  12.8500;

BuildingSurface:Detailed,
  L2_Zone_27_Wall_2,
  Wall,
  BIM2BEM_Interior_Wall,
  L2_Zone_27,
  ,
  Adiabatic,
  ,
  NoSun,
  NoWind,
  ,
  4,
  2.0058,
  5.0738,
  12.8500,
  2.0058,
  5.0738,
  7.0000,
  2.0563,
  5.0738,
  7.0000,
  2.0563,
  5.0738,
  12.8500;

BuildingSurface:Detailed,
  L2_Zone_27_Wall_3,
  Wall,
  BIM2BEM_Interior_Wall,
  L2_Zone_27,
  ,
  Adiabatic,
  ,
  NoSun,
  NoWind,
  ,
  4,
  2.0563,
  5.0738,
  12.8500,
  2.0563,
  5.0738,
  7.0000,
  2.1068,
  5.0738,
  7.0000,
  2.1068,
  5.0738,
  12.8500;

BuildingSurface:Detailed,
  L2_Zone_27_Wall_4,
  Wall,
  BIM2BEM_Interior_Wall,
  L2_Zone_27,
  ,
  Surface,
  L2_Zone_28_Wall_1,
  NoSun,
  NoWind,
  ,
  4,
  2.1068,
  5.0738,
  12.8500,
  2.1068,
  5.0738,
  7.0000,
  7.4058,
  5.0738,
  7.0000,
  7.4058,
  5.0738,
  12.8500;

BuildingSurface:Detailed,
  L2_Zone_27_Wall_5,
  Wall,
  BIM2BEM_Interior_Wall,
  L2_Zone_27,
  ,
  Surface,
  L2_Zone_30_Wall_24,
  NoSun,
  NoWind,
  ,
  4,
  7.4058,
  5.0738,
  12.8500,
  7.4058,
  5.0738,
  7.0000,
  7.4058,
  10.5800,
  7.0000,
  7.4058,
  10.5800,
  12.8500;

BuildingSurface:Detailed,
  L2_Zone_27_Wall_6,
  Wall,
  BIM2BEM_Interior_Wall,
  L2_Zone_27,
  ,
  Adiabatic,
  ,
  NoSun,
  NoWind,
  ,
  4,
  7.4058,
  10.5800,
  12.8500,
  7.4058,
  10.5800,
  7.0000,
  7.4058,
  10.6305,
  7.0000,
  7.4058,
  10.6305,
  12.8500;

BuildingSurface:Detailed,
  L2_Zone_27_Wall_7,
  Wall,
  BIM2BEM_Interior_Wall,
  L2_Zone_27,
  ,
  Adiabatic,
  ,
  NoSun,
  NoWind,
  ,
  4,
  7.4058,
  10.6305,
  12.8500,
  7.4058,
  10.6305,
  7.0000,
  7.4058,
  10.6810,
  7.0000,
  7.4058,
  10.6810,
  12.8500;

BuildingSurface:Detailed,
  L2_Zone_27_Wall_8,
  Wall,
  BIM2BEM_Interior_Wall,
  L2_Zone_27,
  ,
  Surface,
  L2_Zone_31_Wall_1,
  NoSun,
  NoWind,
  ,
  4,
  7.4058,
  10.6810,
  12.8500,
  7.4058,
  10.6810,
  7.0000,
  7.4058,
  13.0800,
  7.0000,
  7.4058,
  13.0800,
  12.8500;

BuildingSurface:Detailed,
  L2_Zone_27_Wall_9,
  Wall,
  BIM2BEM_nonres_ext_wall,
  L2_Zone_27,
  ,
  Outdoors,
  ,
  SunExposed,
  WindExposed,
  ,
  4,
  7.4058,
  13.0800,
  12.8500,
  7.4058,
  13.0800,
  7.0000,
  1.5136,
  13.0800,
  7.0000,
  1.5136,
  13.0800,
  12.8500;

BuildingSurface:Detailed,
  L2_Zone_27_Wall_10,
  Wall,
  BIM2BEM_Interior_Wall,
  L2_Zone_27,
  ,
  Adiabatic,
  ,
  NoSun,
  NoWind,
  ,
  4,
  1.5136,
  10.6810,
  12.8500,
  1.5136,
  10.6810,
  7.0000,
  1.5136,
  10.6305,
  7.0000,
  1.5136,
  10.6305,
  12.8500;

BuildingSurface:Detailed,
  L2_Zone_27_Wall_11,
  Wall,
  BIM2BEM_Interior_Wall,
  L2_Zone_27,
  ,
  Surface,
  L2_Zone_23_Wall_1,
  NoSun,
  NoWind,
  ,
  4,
  1.5136,
  13.0800,
  12.8500,
  1.5136,
  13.0800,
  7.0000,
  1.5136,
  10.6810,
  7.0000,
  1.5136,
  10.6810,
  12.8500;

BuildingSurface:Detailed,
  L2_Zone_27_Wall_12,
  Wall,
  BIM2BEM_Interior_Wall,
  L2_Zone_27,
  ,
  Adiabatic,
  ,
  NoSun,
  NoWind,
  ,
  4,
  1.5136,
  7.4810,
  12.8500,
  1.5136,
  7.4810,
  7.0000,
  1.5136,
  7.3800,
  7.0000,
  1.5136,
  7.3800,
  12.8500;

BuildingSurface:Detailed,
  L2_Zone_27_Wall_13,
  Wall,
  BIM2BEM_Interior_Wall,
  L2_Zone_27,
  ,
  Surface,
  L2_Zone_24_Wall_2,
  NoSun,
  NoWind,
  ,
  4,
  1.5136,
  10.5800,
  12.8500,
  1.5136,
  10.5800,
  7.0000,
  1.5136,
  7.4810,
  7.0000,
  1.5136,
  7.4810,
  12.8500;

BuildingSurface:Detailed,
  L2_Zone_27_Wall_14,
  Wall,
  BIM2BEM_Interior_Wall,
  L2_Zone_27,
  ,
  Adiabatic,
  ,
  NoSun,
  NoWind,
  ,
  4,
  1.5136,
  10.6305,
  12.8500,
  1.5136,
  10.6305,
  7.0000,
  1.5136,
  10.5800,
  7.0000,
  1.5136,
  10.5800,
  12.8500;

BuildingSurface:Detailed,
  L2_Zone_27_Wall_15,
  Wall,
  BIM2BEM_Interior_Wall,
  L2_Zone_27,
  ,
  Adiabatic,
  ,
  NoSun,
  NoWind,
  ,
  4,
  -0.9863,
  7.3800,
  12.8500,
  -0.9863,
  7.3800,
  7.0000,
  -1.0368,
  7.3800,
  7.0000,
  -1.0368,
  7.3800,
  12.8500;

BuildingSurface:Detailed,
  L2_Zone_27_Wall_16,
  Wall,
  BIM2BEM_Interior_Wall,
  L2_Zone_27,
  ,
  Surface,
  L2_Zone_24_Wall_1,
  NoSun,
  NoWind,
  ,
  4,
  1.4126,
  7.3800,
  12.8500,
  1.4126,
  7.3800,
  7.0000,
  -0.9863,
  7.3800,
  7.0000,
  -0.9863,
  7.3800,
  12.8500;

BuildingSurface:Detailed,
  L2_Zone_27_Wall_17,
  Wall,
  BIM2BEM_Interior_Wall,
  L2_Zone_27,
  ,
  Adiabatic,
  ,
  NoSun,
  NoWind,
  ,
  4,
  1.5136,
  7.3800,
  12.8500,
  1.5136,
  7.3800,
  7.0000,
  1.4126,
  7.3800,
  7.0000,
  1.4126,
  7.3800,
  12.8500;

BuildingSurface:Detailed,
  L2_Zone_27_Wall_18,
  Wall,
  BIM2BEM_Interior_Wall,
  L2_Zone_27,
  ,
  Surface,
  L2_Zone_22_Wall_2,
  NoSun,
  NoWind,
  ,
  4,
  -1.0873,
  7.3800,
  12.8500,
  -1.0873,
  7.3800,
  7.0000,
  -4.4863,
  7.3800,
  7.0000,
  -4.4863,
  7.3800,
  12.8500;

BuildingSurface:Detailed,
  L2_Zone_27_Wall_19,
  Wall,
  BIM2BEM_Interior_Wall,
  L2_Zone_27,
  ,
  Adiabatic,
  ,
  NoSun,
  NoWind,
  ,
  4,
  -1.0368,
  7.3800,
  12.8500,
  -1.0368,
  7.3800,
  7.0000,
  -1.0873,
  7.3800,
  7.0000,
  -1.0873,
  7.3800,
  12.8500;

BuildingSurface:Detailed,
  L2_Zone_27_Wall_20,
  Wall,
  BIM2BEM_Interior_Wall,
  L2_Zone_27,
  ,
  Surface,
  L2_Zone_21_Wall_5,
  NoSun,
  NoWind,
  ,
  4,
  -4.4863,
  7.3800,
  12.8500,
  -4.4863,
  7.3800,
  7.0000,
  -4.4863,
  5.0738,
  7.0000,
  -4.4863,
  5.0738,
  12.8500;

BuildingSurface:Detailed,
  L2_Zone_28_Floor_1,
  Floor,
  BIM2BEM_int_slab_floor,
  L2_Zone_28,
  ,
  Surface,
  L1_Zone_8_Ceiling_4,
  NoSun,
  NoWind,
  ,
  4,
  7.4058,
  4.9728,
  7.0000,
  7.4058,
  -0.8262,
  7.0000,
  2.1068,
  -0.8262,
  7.0000,
  2.1068,
  4.9728,
  7.0000;

BuildingSurface:Detailed,
  L2_Zone_28_Roof_1,
  Roof,
  BIM2BEM_nonres_roof,
  L2_Zone_28,
  ,
  Outdoors,
  ,
  SunExposed,
  WindExposed,
  ,
  4,
  2.1068,
  4.9728,
  12.8500,
  2.1068,
  -0.8262,
  12.8500,
  7.4058,
  -0.8262,
  12.8500,
  7.4058,
  4.9728,
  12.8500;

BuildingSurface:Detailed,
  L2_Zone_28_Wall_1,
  Wall,
  BIM2BEM_Interior_Wall,
  L2_Zone_28,
  ,
  Surface,
  L2_Zone_27_Wall_4,
  NoSun,
  NoWind,
  ,
  4,
  7.4058,
  4.9728,
  12.8500,
  7.4058,
  4.9728,
  7.0000,
  2.1068,
  4.9728,
  7.0000,
  2.1068,
  4.9728,
  12.8500;

BuildingSurface:Detailed,
  L2_Zone_28_Wall_2,
  Wall,
  BIM2BEM_Interior_Wall,
  L2_Zone_28,
  ,
  Surface,
  L2_Zone_25_Wall_5,
  NoSun,
  NoWind,
  ,
  4,
  2.1068,
  4.9728,
  12.8500,
  2.1068,
  4.9728,
  7.0000,
  2.1068,
  -0.8262,
  7.0000,
  2.1068,
  -0.8262,
  12.8500;

BuildingSurface:Detailed,
  L2_Zone_28_Wall_3,
  Wall,
  BIM2BEM_nonres_ext_wall,
  L2_Zone_28,
  ,
  Outdoors,
  ,
  SunExposed,
  WindExposed,
  ,
  4,
  2.1068,
  -0.8262,
  12.8500,
  2.1068,
  -0.8262,
  7.0000,
  7.4058,
  -0.8262,
  7.0000,
  7.4058,
  -0.8262,
  12.8500;

BuildingSurface:Detailed,
  L2_Zone_28_Wall_4,
  Wall,
  BIM2BEM_Interior_Wall,
  L2_Zone_28,
  ,
  Surface,
  L2_Zone_29_Wall_5,
  NoSun,
  NoWind,
  ,
  4,
  7.4058,
  -0.8262,
  12.8500,
  7.4058,
  -0.8262,
  7.0000,
  7.4058,
  4.9728,
  7.0000,
  7.4058,
  4.9728,
  12.8500;

BuildingSurface:Detailed,
  L2_Zone_29_Floor_1,
  Floor,
  Exterior Floor,
  L2_Zone_29,
  ,
  Outdoors,
  ,
  SunExposed,
  WindExposed,
  ,
  4,
  17.0035,
  4.9728,
  7.0000,
  17.0035,
  -5.8262,
  7.0000,
  7.5068,
  -5.8262,
  7.0000,
  7.5068,
  4.9728,
  7.0000;

BuildingSurface:Detailed,
  L2_Zone_29_Roof_1,
  Roof,
  BIM2BEM_nonres_roof,
  L2_Zone_29,
  ,
  Outdoors,
  ,
  SunExposed,
  WindExposed,
  ,
  4,
  7.5068,
  4.9728,
  12.8500,
  7.5068,
  -5.8262,
  12.8500,
  17.0035,
  -5.8262,
  12.8500,
  17.0035,
  4.9728,
  12.8500;

BuildingSurface:Detailed,
  L2_Zone_29_Wall_1,
  Wall,
  BIM2BEM_Interior_Wall,
  L2_Zone_29,
  ,
  Surface,
  L2_Zone_30_Wall_1,
  NoSun,
  NoWind,
  ,
  4,
  13.9034,
  4.9728,
  12.8500,
  13.9034,
  4.9728,
  7.0000,
  7.5068,
  4.9728,
  7.0000,
  7.5068,
  4.9728,
  12.8500;

BuildingSurface:Detailed,
  L2_Zone_29_Wall_2,
  Wall,
  BIM2BEM_Interior_Wall,
  L2_Zone_29,
  ,
  Adiabatic,
  ,
  NoSun,
  NoWind,
  ,
  4,
  14.0044,
  4.9728,
  12.8500,
  14.0044,
  4.9728,
  7.0000,
  13.9034,
  4.9728,
  7.0000,
  13.9034,
  4.9728,
  12.8500;

BuildingSurface:Detailed,
  L2_Zone_29_Wall_3,
  Wall,
  BIM2BEM_Interior_Wall,
  L2_Zone_29,
  ,
  Surface,
  L2_Zone_42_Wall_1,
  NoSun,
  NoWind,
  ,
  4,
  17.0035,
  4.9728,
  12.8500,
  17.0035,
  4.9728,
  7.0000,
  14.0044,
  4.9728,
  7.0000,
  14.0044,
  4.9728,
  12.8500;

BuildingSurface:Detailed,
  L2_Zone_29_Wall_4,
  Wall,
  BIM2BEM_Interior_Wall,
  L2_Zone_29,
  ,
  Adiabatic,
  ,
  NoSun,
  NoWind,
  ,
  4,
  7.5068,
  -0.8262,
  12.8500,
  7.5068,
  -0.8262,
  7.0000,
  7.5068,
  -5.8262,
  7.0000,
  7.5068,
  -5.8262,
  12.8500;

BuildingSurface:Detailed,
  L2_Zone_29_Wall_5,
  Wall,
  BIM2BEM_Interior_Wall,
  L2_Zone_29,
  ,
  Surface,
  L2_Zone_28_Wall_4,
  NoSun,
  NoWind,
  ,
  4,
  7.5068,
  4.9728,
  12.8500,
  7.5068,
  4.9728,
  7.0000,
  7.5068,
  -0.8262,
  7.0000,
  7.5068,
  -0.8262,
  12.8500;

BuildingSurface:Detailed,
  L2_Zone_29_Wall_6,
  Wall,
  BIM2BEM_nonres_ext_wall,
  L2_Zone_29,
  ,
  Outdoors,
  ,
  SunExposed,
  WindExposed,
  ,
  4,
  7.5068,
  -5.8262,
  12.8500,
  7.5068,
  -5.8262,
  7.0000,
  17.0035,
  -5.8262,
  7.0000,
  17.0035,
  -5.8262,
  12.8500;

BuildingSurface:Detailed,
  L2_Zone_29_Wall_7,
  Wall,
  BIM2BEM_Interior_Wall,
  L2_Zone_29,
  ,
  Surface,
  L2_Zone_44_Wall_4,
  NoSun,
  NoWind,
  ,
  4,
  17.0035,
  -5.8262,
  12.8500,
  17.0035,
  -5.8262,
  7.0000,
  17.0035,
  -1.4352,
  7.0000,
  17.0035,
  -1.4352,
  12.8500;

BuildingSurface:Detailed,
  L2_Zone_29_Wall_8,
  Wall,
  BIM2BEM_Interior_Wall,
  L2_Zone_29,
  ,
  Adiabatic,
  ,
  NoSun,
  NoWind,
  ,
  4,
  17.0035,
  -1.4352,
  12.8500,
  17.0035,
  -1.4352,
  7.0000,
  17.0035,
  -1.3342,
  7.0000,
  17.0035,
  -1.3342,
  12.8500;

BuildingSurface:Detailed,
  L2_Zone_29_Wall_9,
  Wall,
  BIM2BEM_Interior_Wall,
  L2_Zone_29,
  ,
  Surface,
  L2_Zone_43_Wall_2,
  NoSun,
  NoWind,
  ,
  4,
  17.0035,
  -1.3342,
  12.8500,
  17.0035,
  -1.3342,
  7.0000,
  17.0035,
  4.9728,
  7.0000,
  17.0035,
  4.9728,
  12.8500;

BuildingSurface:Detailed,
  L2_Zone_30_Floor_1,
  Floor,
  BIM2BEM_int_slab_floor,
  L2_Zone_30,
  ,
  Surface,
  L1_Zone_12_Ceiling_1,
  NoSun,
  NoWind,
  ,
  4,
  13.9034,
  8.6720,
  7.0000,
  13.9034,
  5.0738,
  7.0000,
  7.5068,
  5.0738,
  7.0000,
  7.5068,
  8.6720,
  7.0000;

BuildingSurface:Detailed,
  L2_Zone_30_Floor_2,
  Floor,
  BIM2BEM_int_slab_floor,
  L2_Zone_30,
  ,
  Surface,
  L1_Zone_12_Ceiling_2,
  NoSun,
  NoWind,
  ,
  4,
  20.9808,
  10.5728,
  7.0000,
  20.9808,
  8.6720,
  7.0000,
  7.5068,
  8.6720,
  7.0000,
  7.5068,
  10.5728,
  7.0000;

BuildingSurface:Detailed,
  L2_Zone_30_Floor_3,
  Floor,
  BIM2BEM_int_slab_floor,
  L2_Zone_30,
  ,
  Surface,
  L1_Zone_12_Ceiling_3,
  NoSun,
  NoWind,
  ,
  4,
  20.9808,
  10.5800,
  7.0000,
  20.9808,
  10.5728,
  7.0000,
  11.5068,
  10.5728,
  7.0000,
  11.5068,
  10.5800,
  7.0000;

BuildingSurface:Detailed,
  L2_Zone_30_Floor_4,
  Floor,
  BIM2BEM_int_slab_floor,
  L2_Zone_30,
  ,
  Surface,
  L1_Zone_12_Ceiling_4,
  NoSun,
  NoWind,
  ,
  4,
  20.9808,
  10.9728,
  7.0000,
  20.9808,
  10.5800,
  7.0000,
  11.5137,
  10.5800,
  7.0000,
  11.5137,
  10.9728,
  7.0000;

BuildingSurface:Detailed,
  L2_Zone_30_Floor_5,
  Floor,
  BIM2BEM_int_slab_floor,
  L2_Zone_30,
  ,
  Surface,
  L1_Zone_17_Ceiling_1,
  NoSun,
  NoWind,
  ,
  4,
  27.9808,
  10.9800,
  7.0000,
  27.9808,
  8.6720,
  7.0000,
  21.0818,
  8.6720,
  7.0000,
  21.0818,
  10.9800,
  7.0000;

BuildingSurface:Detailed,
  L2_Zone_30_Floor_6,
  Floor,
  Interior Floor,
  L2_Zone_30,
  ,
  Adiabatic,
  ,
  NoSun,
  NoWind,
  ,
  4,
  11.5068,
  10.5800,
  7.0000,
  11.5068,
  10.5728,
  7.0000,
  7.5068,
  10.5728,
  7.0000,
  7.5068,
  10.5800,
  7.0000;

BuildingSurface:Detailed,
  L2_Zone_30_Floor_7,
  Floor,
  Interior Floor,
  L2_Zone_30,
  ,
  Adiabatic,
  ,
  NoSun,
  NoWind,
  ,
  4,
  21.0818,
  10.9800,
  7.0000,
  21.0818,
  10.9728,
  7.0000,
  11.5137,
  10.9728,
  7.0000,
  11.5137,
  10.9800,
  7.0000;

BuildingSurface:Detailed,
  L2_Zone_30_Floor_8,
  Floor,
  Interior Floor,
  L2_Zone_30,
  ,
  Adiabatic,
  ,
  NoSun,
  NoWind,
  ,
  4,
  21.0818,
  10.9728,
  7.0000,
  21.0818,
  8.6720,
  7.0000,
  20.9808,
  8.6720,
  7.0000,
  20.9808,
  10.9728,
  7.0000;

BuildingSurface:Detailed,
  L2_Zone_30_Floor_9,
  Floor,
  Interior Floor,
  L2_Zone_30,
  ,
  Adiabatic,
  ,
  NoSun,
  NoWind,
  ,
  4,
  27.9985,
  10.9800,
  7.0000,
  27.9985,
  8.6720,
  7.0000,
  27.9808,
  8.6720,
  7.0000,
  27.9808,
  10.9800,
  7.0000;

BuildingSurface:Detailed,
  L2_Zone_30_Ceiling_1,
  Ceiling,
  BIM2BEM_int_slab_ceiling,
  L2_Zone_30,
  ,
  Surface,
  L3_Zone_47_Floor_1,
  NoSun,
  NoWind,
  ,
  4,
  7.5068,
  8.6720,
  12.8500,
  7.5068,
  5.0738,
  12.8500,
  13.9034,
  5.0738,
  12.8500,
  13.9034,
  8.6720,
  12.8500;

BuildingSurface:Detailed,
  L2_Zone_30_Ceiling_2,
  Ceiling,
  BIM2BEM_int_slab_ceiling,
  L2_Zone_30,
  ,
  Surface,
  L3_Zone_47_Floor_2,
  NoSun,
  NoWind,
  ,
  4,
  7.5068,
  10.5710,
  12.8500,
  7.5068,
  8.6720,
  12.8500,
  27.9985,
  8.6720,
  12.8500,
  27.9985,
  10.5710,
  12.8500;

BuildingSurface:Detailed,
  L2_Zone_30_Ceiling_3,
  Ceiling,
  BIM2BEM_int_slab_ceiling,
  L2_Zone_30,
  ,
  Surface,
  L3_Zone_47_Floor_3,
  NoSun,
  NoWind,
  ,
  4,
  11.5044,
  10.5800,
  12.8500,
  11.5044,
  10.5710,
  12.8500,
  27.9985,
  10.5710,
  12.8500,
  27.9985,
  10.5800,
  12.8500;

BuildingSurface:Detailed,
  L2_Zone_30_Ceiling_4,
  Ceiling,
  BIM2BEM_int_slab_ceiling,
  L2_Zone_30,
  ,
  Surface,
  L3_Zone_47_Floor_4,
  NoSun,
  NoWind,
  ,
  4,
  11.5137,
  10.9710,
  12.8500,
  11.5137,
  10.5800,
  12.8500,
  27.9985,
  10.5800,
  12.8500,
  27.9985,
  10.9710,
  12.8500;

BuildingSurface:Detailed,
  L2_Zone_30_Roof_1,
  Roof,
  Interior Ceiling,
  L2_Zone_30,
  ,
  Adiabatic,
  ,
  NoSun,
  NoWind,
  ,
  4,
  7.5068,
  10.5800,
  12.8500,
  7.5068,
  10.5710,
  12.8500,
  11.5044,
  10.5710,
  12.8500,
  11.5044,
  10.5800,
  12.8500;

BuildingSurface:Detailed,
  L2_Zone_30_Roof_2,
  Roof,
  Interior Ceiling,
  L2_Zone_30,
  ,
  Adiabatic,
  ,
  NoSun,
  NoWind,
  ,
  4,
  11.5137,
  10.9800,
  12.8500,
  11.5137,
  10.9710,
  12.8500,
  27.9985,
  10.9710,
  12.8500,
  27.9985,
  10.9800,
  12.8500;

BuildingSurface:Detailed,
  L2_Zone_30_Wall_1,
  Wall,
  BIM2BEM_Interior_Wall,
  L2_Zone_30,
  ,
  Surface,
  L2_Zone_29_Wall_1,
  NoSun,
  NoWind,
  ,
  4,
  7.5068,
  5.0738,
  12.8500,
  7.5068,
  5.0738,
  7.0000,
  13.9034,
  5.0738,
  7.0000,
  13.9034,
  5.0738,
  12.8500;

BuildingSurface:Detailed,
  L2_Zone_30_Wall_2,
  Wall,
  BIM2BEM_Interior_Wall,
  L2_Zone_30,
  ,
  Surface,
  L2_Zone_42_Wall_6,
  NoSun,
  NoWind,
  ,
  4,
  13.9034,
  5.0738,
  12.8500,
  13.9034,
  5.0738,
  7.0000,
  13.9034,
  8.5710,
  7.0000,
  13.9034,
  8.5710,
  12.8500;

BuildingSurface:Detailed,
  L2_Zone_30_Wall_3,
  Wall,
  BIM2BEM_Interior_Wall,
  L2_Zone_30,
  ,
  Adiabatic,
  ,
  NoSun,
  NoWind,
  ,
  4,
  13.9034,
  8.5710,
  12.8500,
  13.9034,
  8.5710,
  7.0000,
  13.9034,
  8.6720,
  7.0000,
  13.9034,
  8.6720,
  12.8500;

BuildingSurface:Detailed,
  L2_Zone_30_Wall_4,
  Wall,
  BIM2BEM_Interior_Wall,
  L2_Zone_30,
  ,
  Adiabatic,
  ,
  NoSun,
  NoWind,
  ,
  4,
  13.9034,
  8.6720,
  12.8500,
  13.9034,
  8.6720,
  7.0000,
  14.0044,
  8.6720,
  7.0000,
  14.0044,
  8.6720,
  12.8500;

BuildingSurface:Detailed,
  L2_Zone_30_Wall_5,
  Wall,
  BIM2BEM_Interior_Wall,
  L2_Zone_30,
  ,
  Surface,
  L2_Zone_42_Wall_5,
  NoSun,
  NoWind,
  ,
  4,
  14.0044,
  8.6720,
  12.8500,
  14.0044,
  8.6720,
  7.0000,
  21.0058,
  8.6720,
  7.0000,
  21.0058,
  8.6720,
  12.8500;

BuildingSurface:Detailed,
  L2_Zone_30_Wall_6,
  Wall,
  BIM2BEM_Interior_Wall,
  L2_Zone_30,
  ,
  Adiabatic,
  ,
  NoSun,
  NoWind,
  ,
  4,
  21.0058,
  8.6720,
  12.8500,
  21.0058,
  8.6720,
  7.0000,
  21.0563,
  8.6720,
  7.0000,
  21.0563,
  8.6720,
  12.8500;

BuildingSurface:Detailed,
  L2_Zone_30_Wall_7,
  Wall,
  BIM2BEM_Interior_Wall,
  L2_Zone_30,
  ,
  Adiabatic,
  ,
  NoSun,
  NoWind,
  ,
  4,
  21.0563,
  8.6720,
  12.8500,
  21.0563,
  8.6720,
  7.0000,
  21.1068,
  8.6720,
  7.0000,
  21.1068,
  8.6720,
  12.8500;

BuildingSurface:Detailed,
  L2_Zone_30_Wall_8,
  Wall,
  BIM2BEM_Interior_Wall,
  L2_Zone_30,
  ,
  Surface,
  L2_Zone_26_Wall_3,
  NoSun,
  NoWind,
  ,
  4,
  21.1068,
  8.6720,
  12.8500,
  21.1068,
  8.6720,
  7.0000,
  27.9985,
  8.6720,
  7.0000,
  27.9985,
  8.6720,
  12.8500;

BuildingSurface:Detailed,
  L2_Zone_30_Wall_9,
  Wall,
  BIM2BEM_Interior_Wall,
  L2_Zone_30,
  ,
  Surface,
  L2_Zone_40_Wall_10,
  NoSun,
  NoWind,
  ,
  4,
  27.9985,
  8.6720,
  12.8500,
  27.9985,
  8.6720,
  7.0000,
  27.9985,
  10.9800,
  7.0000,
  27.9985,
  10.9800,
  12.8500;

BuildingSurface:Detailed,
  L2_Zone_30_Wall_10,
  Wall,
  BIM2BEM_Interior_Wall,
  L2_Zone_30,
  ,
  Adiabatic,
  ,
  NoSun,
  NoWind,
  ,
  4,
  21.1142,
  10.9800,
  12.8500,
  21.1142,
  10.9800,
  7.0000,
  21.0637,
  10.9800,
  7.0000,
  21.0637,
  10.9800,
  12.8500;

BuildingSurface:Detailed,
  L2_Zone_30_Wall_11,
  Wall,
  BIM2BEM_Interior_Wall,
  L2_Zone_30,
  ,
  Surface,
  L2_Zone_36_Wall_1,
  NoSun,
  NoWind,
  ,
  4,
  27.9985,
  10.9800,
  12.8500,
  27.9985,
  10.9800,
  7.0000,
  21.1142,
  10.9800,
  7.0000,
  21.1142,
  10.9800,
  12.8500;

BuildingSurface:Detailed,
  L2_Zone_30_Wall_12,
  Wall,
  BIM2BEM_Interior_Wall,
  L2_Zone_30,
  ,
  Adiabatic,
  ,
  NoSun,
  NoWind,
  ,
  4,
  17.8637,
  10.9800,
  12.8500,
  17.8637,
  10.9800,
  7.0000,
  17.8132,
  10.9800,
  7.0000,
  17.8132,
  10.9800,
  12.8500;

BuildingSurface:Detailed,
  L2_Zone_30_Wall_13,
  Wall,
  BIM2BEM_Interior_Wall,
  L2_Zone_30,
  ,
  Surface,
  L2_Zone_35_Wall_1,
  NoSun,
  NoWind,
  ,
  4,
  21.0132,
  10.9800,
  12.8500,
  21.0132,
  10.9800,
  7.0000,
  17.8637,
  10.9800,
  7.0000,
  17.8637,
  10.9800,
  12.8500;

BuildingSurface:Detailed,
  L2_Zone_30_Wall_14,
  Wall,
  BIM2BEM_Interior_Wall,
  L2_Zone_30,
  ,
  Adiabatic,
  ,
  NoSun,
  NoWind,
  ,
  4,
  21.0637,
  10.9800,
  12.8500,
  21.0637,
  10.9800,
  7.0000,
  21.0132,
  10.9800,
  7.0000,
  21.0132,
  10.9800,
  12.8500;

BuildingSurface:Detailed,
  L2_Zone_30_Wall_15,
  Wall,
  BIM2BEM_Interior_Wall,
  L2_Zone_30,
  ,
  Adiabatic,
  ,
  NoSun,
  NoWind,
  ,
  4,
  14.6137,
  10.9800,
  12.8500,
  14.6137,
  10.9800,
  7.0000,
  14.5632,
  10.9800,
  7.0000,
  14.5632,
  10.9800,
  12.8500;

BuildingSurface:Detailed,
  L2_Zone_30_Wall_16,
  Wall,
  BIM2BEM_Interior_Wall,
  L2_Zone_30,
  ,
  Surface,
  L2_Zone_34_Wall_1,
  NoSun,
  NoWind,
  ,
  4,
  17.7627,
  10.9800,
  12.8500,
  17.7627,
  10.9800,
  7.0000,
  14.6137,
  10.9800,
  7.0000,
  14.6137,
  10.9800,
  12.8500;

BuildingSurface:Detailed,
  L2_Zone_30_Wall_17,
  Wall,
  BIM2BEM_Interior_Wall,
  L2_Zone_30,
  ,
  Adiabatic,
  ,
  NoSun,
  NoWind,
  ,
  4,
  17.8132,
  10.9800,
  12.8500,
  17.8132,
  10.9800,
  7.0000,
  17.7627,
  10.9800,
  7.0000,
  17.7627,
  10.9800,
  12.8500;

BuildingSurface:Detailed,
  L2_Zone_30_Wall_18,
  Wall,
  BIM2BEM_Interior_Wall,
  L2_Zone_30,
  ,
  Surface,
  L2_Zone_32_Wall_2,
  NoSun,
  NoWind,
  ,
  4,
  14.5127,
  10.9800,
  12.8500,
  14.5127,
  10.9800,
  7.0000,
  11.5137,
  10.9800,
  7.0000,
  11.5137,
  10.9800,
  12.8500;

BuildingSurface:Detailed,
  L2_Zone_30_Wall_19,
  Wall,
  BIM2BEM_Interior_Wall,
  L2_Zone_30,
  ,
  Adiabatic,
  ,
  NoSun,
  NoWind,
  ,
  4,
  14.5632,
  10.9800,
  12.8500,
  14.5632,
  10.9800,
  7.0000,
  14.5127,
  10.9800,
  7.0000,
  14.5127,
  10.9800,
  12.8500;

BuildingSurface:Detailed,
  L2_Zone_30_Wall_20,
  Wall,
  BIM2BEM_Interior_Wall,
  L2_Zone_30,
  ,
  Adiabatic,
  ,
  NoSun,
  NoWind,
  ,
  4,
  11.5137,
  10.6810,
  12.8500,
  11.5137,
  10.6810,
  7.0000,
  11.5137,
  10.5800,
  7.0000,
  11.5137,
  10.5800,
  12.8500;

BuildingSurface:Detailed,
  L2_Zone_30_Wall_21,
  Wall,
  BIM2BEM_Interior_Wall,
  L2_Zone_30,
  ,
  Surface,
  L2_Zone_31_Wall_4,
  NoSun,
  NoWind,
  ,
  4,
  11.5137,
  10.9800,
  12.8500,
  11.5137,
  10.9800,
  7.0000,
  11.5137,
  10.6810,
  7.0000,
  11.5137,
  10.6810,
  12.8500;

BuildingSurface:Detailed,
  L2_Zone_30_Wall_22,
  Wall,
  BIM2BEM_Interior_Wall,
  L2_Zone_30,
  ,
  Surface,
  L2_Zone_31_Wall_3,
  NoSun,
  NoWind,
  ,
  4,
  11.4127,
  10.5800,
  12.8500,
  11.4127,
  10.5800,
  7.0000,
  7.5068,
  10.5800,
  7.0000,
  7.5068,
  10.5800,
  12.8500;

BuildingSurface:Detailed,
  L2_Zone_30_Wall_23,
  Wall,
  BIM2BEM_Interior_Wall,
  L2_Zone_30,
  ,
  Adiabatic,
  ,
  NoSun,
  NoWind,
  ,
  4,
  11.5137,
  10.5800,
  12.8500,
  11.5137,
  10.5800,
  7.0000,
  11.4127,
  10.5800,
  7.0000,
  11.4127,
  10.5800,
  12.8500;

BuildingSurface:Detailed,
  L2_Zone_30_Wall_24,
  Wall,
  BIM2BEM_Interior_Wall,
  L2_Zone_30,
  ,
  Surface,
  L2_Zone_27_Wall_5,
  NoSun,
  NoWind,
  ,
  4,
  7.5068,
  10.5800,
  12.8500,
  7.5068,
  10.5800,
  7.0000,
  7.5068,
  5.0738,
  7.0000,
  7.5068,
  5.0738,
  12.8500;

BuildingSurface:Detailed,
  L2_Zone_31_Floor_1,
  Floor,
  BIM2BEM_int_slab_floor,
  L2_Zone_31,
  ,
  Surface,
  L1_Zone_13_Ceiling_1,
  NoSun,
  NoWind,
  ,
  4,
  11.4058,
  14.5728,
  7.0000,
  11.4058,
  10.6810,
  7.0000,
  7.5068,
  10.6810,
  7.0000,
  7.5068,
  14.5728,
  7.0000;

BuildingSurface:Detailed,
  L2_Zone_31_Floor_2,
  Floor,
  Interior Floor,
  L2_Zone_31,
  ,
  Adiabatic,
  ,
  NoSun,
  NoWind,
  ,
  4,
  11.4127,
  14.5728,
  7.0000,
  11.4127,
  10.6810,
  7.0000,
  11.4058,
  10.6810,
  7.0000,
  11.4058,
  14.5728,
  7.0000;

BuildingSurface:Detailed,
  L2_Zone_31_Ceiling_1,
  Ceiling,
  BIM2BEM_int_slab_ceiling,
  L2_Zone_31,
  ,
  Surface,
  L3_Zone_45_Floor_1,
  NoSun,
  NoWind,
  ,
  4,
  7.5068,
  14.5728,
  12.8500,
  7.5068,
  10.6810,
  12.8500,
  11.4034,
  10.6810,
  12.8500,
  11.4034,
  14.5728,
  12.8500;

BuildingSurface:Detailed,
  L2_Zone_31_Roof_1,
  Roof,
  Interior Ceiling,
  L2_Zone_31,
  ,
  Adiabatic,
  ,
  NoSun,
  NoWind,
  ,
  4,
  11.4034,
  14.5728,
  12.8500,
  11.4034,
  10.6810,
  12.8500,
  11.4127,
  10.6810,
  12.8500,
  11.4127,
  14.5728,
  12.8500;

BuildingSurface:Detailed,
  L2_Zone_31_Wall_1,
  Wall,
  BIM2BEM_Interior_Wall,
  L2_Zone_31,
  ,
  Surface,
  L2_Zone_27_Wall_8,
  NoSun,
  NoWind,
  ,
  4,
  7.5068,
  13.0800,
  12.8500,
  7.5068,
  13.0800,
  7.0000,
  7.5068,
  10.6810,
  7.0000,
  7.5068,
  10.6810,
  12.8500;

BuildingSurface:Detailed,
  L2_Zone_31_Wall_2,
  Wall,
  BIM2BEM_Interior_Wall,
  L2_Zone_31,
  ,
  Adiabatic,
  ,
  NoSun,
  NoWind,
  ,
  4,
  7.5068,
  14.5728,
  12.8500,
  7.5068,
  14.5728,
  7.0000,
  7.5068,
  13.0800,
  7.0000,
  7.5068,
  13.0800,
  12.8500;

BuildingSurface:Detailed,
  L2_Zone_31_Wall_3,
  Wall,
  BIM2BEM_Interior_Wall,
  L2_Zone_31,
  ,
  Surface,
  L2_Zone_30_Wall_22,
  NoSun,
  NoWind,
  ,
  4,
  7.5068,
  10.6810,
  12.8500,
  7.5068,
  10.6810,
  7.0000,
  11.4127,
  10.6810,
  7.0000,
  11.4127,
  10.6810,
  12.8500;

BuildingSurface:Detailed,
  L2_Zone_31_Wall_4,
  Wall,
  BIM2BEM_Interior_Wall,
  L2_Zone_31,
  ,
  Surface,
  L2_Zone_30_Wall_21,
  NoSun,
  NoWind,
  ,
  4,
  11.4127,
  10.6810,
  12.8500,
  11.4127,
  10.6810,
  7.0000,
  11.4127,
  10.9800,
  7.0000,
  11.4127,
  10.9800,
  12.8500;

BuildingSurface:Detailed,
  L2_Zone_31_Wall_5,
  Wall,
  BIM2BEM_Interior_Wall,
  L2_Zone_31,
  ,
  Adiabatic,
  ,
  NoSun,
  NoWind,
  ,
  4,
  11.4127,
  10.9800,
  12.8500,
  11.4127,
  10.9800,
  7.0000,
  11.4127,
  11.0810,
  7.0000,
  11.4127,
  11.0810,
  12.8500;

BuildingSurface:Detailed,
  L2_Zone_31_Wall_6,
  Wall,
  BIM2BEM_Interior_Wall,
  L2_Zone_31,
  ,
  Surface,
  L2_Zone_32_Wall_1,
  NoSun,
  NoWind,
  ,
  4,
  11.4127,
  11.0810,
  12.8500,
  11.4127,
  11.0810,
  7.0000,
  11.4127,
  14.5728,
  7.0000,
  11.4127,
  14.5728,
  12.8500;

BuildingSurface:Detailed,
  L2_Zone_31_Wall_7,
  Wall,
  BIM2BEM_nonres_ext_wall,
  L2_Zone_31,
  ,
  Outdoors,
  ,
  SunExposed,
  WindExposed,
  ,
  4,
  11.4127,
  14.5728,
  12.8500,
  11.4127,
  14.5728,
  7.0000,
  7.5068,
  14.5728,
  7.0000,
  7.5068,
  14.5728,
  12.8500;

BuildingSurface:Detailed,
  L2_Zone_32_Floor_1,
  Floor,
  BIM2BEM_int_slab_floor,
  L2_Zone_32,
  ,
  Surface,
  L1_Zone_14_Ceiling_1,
  NoSun,
  NoWind,
  ,
  4,
  14.4808,
  14.5728,
  7.0000,
  14.4808,
  11.0810,
  7.0000,
  11.5137,
  11.0810,
  7.0000,
  11.5137,
  14.5728,
  7.0000;

BuildingSurface:Detailed,
  L2_Zone_32_Floor_2,
  Floor,
  Interior Floor,
  L2_Zone_32,
  ,
  Adiabatic,
  ,
  NoSun,
  NoWind,
  ,
  4,
  14.5127,
  14.5728,
  7.0000,
  14.5127,
  11.0810,
  7.0000,
  14.4808,
  11.0810,
  7.0000,
  14.4808,
  14.5728,
  7.0000;

BuildingSurface:Detailed,
  L2_Zone_32_Ceiling_1,
  Ceiling,
  BIM2BEM_int_slab_ceiling,
  L2_Zone_32,
  ,
  Surface,
  L3_Zone_46_Floor_1,
  NoSun,
  NoWind,
  ,
  4,
  11.5137,
  14.5728,
  12.8500,
  11.5137,
  11.0810,
  12.8500,
  13.9034,
  11.0810,
  12.8500,
  13.9034,
  14.5728,
  12.8500;

BuildingSurface:Detailed,
  L2_Zone_32_Ceiling_2,
  Ceiling,
  BIM2BEM_int_slab_ceiling,
  L2_Zone_32,
  ,
  Surface,
  L3_Zone_49_Floor_1,
  NoSun,
  NoWind,
  ,
  4,
  14.0044,
  14.5728,
  12.8500,
  14.0044,
  11.0810,
  12.8500,
  14.5127,
  11.0810,
  12.8500,
  14.5127,
  14.5728,
  12.8500;

BuildingSurface:Detailed,
  L2_Zone_32_Roof_1,
  Roof,
  Interior Ceiling,
  L2_Zone_32,
  ,
  Adiabatic,
  ,
  NoSun,
  NoWind,
  ,
  4,
  13.9034,
  14.5728,
  12.8500,
  13.9034,
  11.0810,
  12.8500,
  14.0044,
  11.0810,
  12.8500,
  14.0044,
  14.5728,
  12.8500;

BuildingSurface:Detailed,
  L2_Zone_32_Wall_1,
  Wall,
  BIM2BEM_Interior_Wall,
  L2_Zone_32,
  ,
  Surface,
  L2_Zone_31_Wall_6,
  NoSun,
  NoWind,
  ,
  4,
  11.5137,
  14.5728,
  12.8500,
  11.5137,
  14.5728,
  7.0000,
  11.5137,
  11.0810,
  7.0000,
  11.5137,
  11.0810,
  12.8500;

BuildingSurface:Detailed,
  L2_Zone_32_Wall_2,
  Wall,
  BIM2BEM_Interior_Wall,
  L2_Zone_32,
  ,
  Surface,
  L2_Zone_30_Wall_18,
  NoSun,
  NoWind,
  ,
  4,
  11.5137,
  11.0810,
  12.8500,
  11.5137,
  11.0810,
  7.0000,
  14.5127,
  11.0810,
  7.0000,
  14.5127,
  11.0810,
  12.8500;

BuildingSurface:Detailed,
  L2_Zone_32_Wall_3,
  Wall,
  BIM2BEM_Interior_Wall,
  L2_Zone_32,
  ,
  Surface,
  L2_Zone_34_Wall_4,
  NoSun,
  NoWind,
  ,
  4,
  14.5127,
  11.0810,
  12.8500,
  14.5127,
  11.0810,
  7.0000,
  14.5127,
  14.5728,
  7.0000,
  14.5127,
  14.5728,
  12.8500;

BuildingSurface:Detailed,
  L2_Zone_32_Wall_4,
  Wall,
  BIM2BEM_nonres_ext_wall,
  L2_Zone_32,
  ,
  Outdoors,
  ,
  SunExposed,
  WindExposed,
  ,
  4,
  14.5127,
  14.5728,
  12.8500,
  14.5127,
  14.5728,
  7.0000,
  11.5137,
  14.5728,
  7.0000,
  11.5137,
  14.5728,
  12.8500;

BuildingSurface:Detailed,
  L2_Zone_34_Floor_1,
  Floor,
  BIM2BEM_int_slab_floor,
  L2_Zone_34,
  ,
  Surface,
  L1_Zone_15_Ceiling_1,
  NoSun,
  NoWind,
  ,
  4,
  17.7308,
  14.5728,
  7.0000,
  17.7308,
  11.0810,
  7.0000,
  14.6137,
  11.0810,
  7.0000,
  14.6137,
  14.5728,
  7.0000;

BuildingSurface:Detailed,
  L2_Zone_34_Floor_2,
  Floor,
  Interior Floor,
  L2_Zone_34,
  ,
  Adiabatic,
  ,
  NoSun,
  NoWind,
  ,
  4,
  17.7627,
  14.5728,
  7.0000,
  17.7627,
  11.0810,
  7.0000,
  17.7308,
  11.0810,
  7.0000,
  17.7308,
  14.5728,
  7.0000;

BuildingSurface:Detailed,
  L2_Zone_34_Ceiling_1,
  Ceiling,
  BIM2BEM_int_slab_ceiling,
  L2_Zone_34,
  ,
  Surface,
  L3_Zone_49_Floor_2,
  NoSun,
  NoWind,
  ,
  4,
  14.6137,
  14.5728,
  12.8500,
  14.6137,
  11.0810,
  12.8500,
  17.4534,
  11.0810,
  12.8500,
  17.4534,
  14.5728,
  12.8500;

BuildingSurface:Detailed,
  L2_Zone_34_Ceiling_2,
  Ceiling,
  BIM2BEM_int_slab_ceiling,
  L2_Zone_34,
  ,
  Surface,
  L3_Zone_51_Floor_1,
  NoSun,
  NoWind,
  ,
  4,
  17.5544,
  14.5728,
  12.8500,
  17.5544,
  11.0810,
  12.8500,
  17.7627,
  11.0810,
  12.8500,
  17.7627,
  14.5728,
  12.8500;

BuildingSurface:Detailed,
  L2_Zone_34_Roof_1,
  Roof,
  Interior Ceiling,
  L2_Zone_34,
  ,
  Adiabatic,
  ,
  NoSun,
  NoWind,
  ,
  4,
  17.4534,
  14.5728,
  12.8500,
  17.4534,
  11.0810,
  12.8500,
  17.5544,
  11.0810,
  12.8500,
  17.5544,
  14.5728,
  12.8500;

BuildingSurface:Detailed,
  L2_Zone_34_Wall_1,
  Wall,
  BIM2BEM_Interior_Wall,
  L2_Zone_34,
  ,
  Surface,
  L2_Zone_30_Wall_16,
  NoSun,
  NoWind,
  ,
  4,
  14.6137,
  11.0810,
  12.8500,
  14.6137,
  11.0810,
  7.0000,
  17.7627,
  11.0810,
  7.0000,
  17.7627,
  11.0810,
  12.8500;

BuildingSurface:Detailed,
  L2_Zone_34_Wall_2,
  Wall,
  BIM2BEM_Interior_Wall,
  L2_Zone_34,
  ,
  Surface,
  L2_Zone_35_Wall_4,
  NoSun,
  NoWind,
  ,
  4,
  17.7627,
  11.0810,
  12.8500,
  17.7627,
  11.0810,
  7.0000,
  17.7627,
  14.5728,
  7.0000,
  17.7627,
  14.5728,
  12.8500;

BuildingSurface:Detailed,
  L2_Zone_34_Wall_3,
  Wall,
  BIM2BEM_nonres_ext_wall,
  L2_Zone_34,
  ,
  Outdoors,
  ,
  SunExposed,
  WindExposed,
  ,
  4,
  17.7627,
  14.5728,
  12.8500,
  17.7627,
  14.5728,
  7.0000,
  14.6137,
  14.5728,
  7.0000,
  14.6137,
  14.5728,
  12.8500;

BuildingSurface:Detailed,
  L2_Zone_34_Wall_4,
  Wall,
  BIM2BEM_Interior_Wall,
  L2_Zone_34,
  ,
  Surface,
  L2_Zone_32_Wall_3,
  NoSun,
  NoWind,
  ,
  4,
  14.6137,
  14.5728,
  12.8500,
  14.6137,
  14.5728,
  7.0000,
  14.6137,
  11.0810,
  7.0000,
  14.6137,
  11.0810,
  12.8500;

BuildingSurface:Detailed,
  L2_Zone_35_Floor_1,
  Floor,
  BIM2BEM_int_slab_floor,
  L2_Zone_35,
  ,
  Surface,
  L1_Zone_16_Ceiling_1,
  NoSun,
  NoWind,
  ,
  4,
  20.9808,
  14.5728,
  7.0000,
  20.9808,
  11.0810,
  7.0000,
  17.8637,
  11.0810,
  7.0000,
  17.8637,
  14.5728,
  7.0000;

BuildingSurface:Detailed,
  L2_Zone_35_Floor_2,
  Floor,
  Interior Floor,
  L2_Zone_35,
  ,
  Adiabatic,
  ,
  NoSun,
  NoWind,
  ,
  4,
  21.0132,
  14.5728,
  7.0000,
  21.0132,
  11.0810,
  7.0000,
  20.9808,
  11.0810,
  7.0000,
  20.9808,
  14.5728,
  7.0000;

BuildingSurface:Detailed,
  L2_Zone_35_Ceiling_1,
  Ceiling,
  BIM2BEM_int_slab_ceiling,
  L2_Zone_35,
  ,
  Surface,
  L3_Zone_51_Floor_2,
  NoSun,
  NoWind,
  ,
  4,
  17.8637,
  14.5728,
  12.8500,
  17.8637,
  11.0810,
  12.8500,
  19.3534,
  11.0810,
  12.8500,
  19.3534,
  14.5728,
  12.8500;

BuildingSurface:Detailed,
  L2_Zone_35_Ceiling_2,
  Ceiling,
  BIM2BEM_int_slab_ceiling,
  L2_Zone_35,
  ,
  Surface,
  L3_Zone_52_Floor_1,
  NoSun,
  NoWind,
  ,
  4,
  19.4544,
  14.5728,
  12.8500,
  19.4544,
  11.0810,
  12.8500,
  21.0132,
  11.0810,
  12.8500,
  21.0132,
  14.5728,
  12.8500;

BuildingSurface:Detailed,
  L2_Zone_35_Roof_1,
  Roof,
  Interior Ceiling,
  L2_Zone_35,
  ,
  Adiabatic,
  ,
  NoSun,
  NoWind,
  ,
  4,
  19.3534,
  14.5728,
  12.8500,
  19.3534,
  11.0810,
  12.8500,
  19.4544,
  11.0810,
  12.8500,
  19.4544,
  14.5728,
  12.8500;

BuildingSurface:Detailed,
  L2_Zone_35_Wall_1,
  Wall,
  BIM2BEM_Interior_Wall,
  L2_Zone_35,
  ,
  Surface,
  L2_Zone_30_Wall_13,
  NoSun,
  NoWind,
  ,
  4,
  17.8637,
  11.0810,
  12.8500,
  17.8637,
  11.0810,
  7.0000,
  21.0132,
  11.0810,
  7.0000,
  21.0132,
  11.0810,
  12.8500;

BuildingSurface:Detailed,
  L2_Zone_35_Wall_2,
  Wall,
  BIM2BEM_Interior_Wall,
  L2_Zone_35,
  ,
  Surface,
  L2_Zone_36_Wall_6,
  NoSun,
  NoWind,
  ,
  4,
  21.0132,
  11.0810,
  12.8500,
  21.0132,
  11.0810,
  7.0000,
  21.0132,
  14.5728,
  7.0000,
  21.0132,
  14.5728,
  12.8500;

BuildingSurface:Detailed,
  L2_Zone_35_Wall_3,
  Wall,
  BIM2BEM_nonres_ext_wall,
  L2_Zone_35,
  ,
  Outdoors,
  ,
  SunExposed,
  WindExposed,
  ,
  4,
  21.0132,
  14.5728,
  12.8500,
  21.0132,
  14.5728,
  7.0000,
  17.8637,
  14.5728,
  7.0000,
  17.8637,
  14.5728,
  12.8500;

BuildingSurface:Detailed,
  L2_Zone_35_Wall_4,
  Wall,
  BIM2BEM_Interior_Wall,
  L2_Zone_35,
  ,
  Surface,
  L2_Zone_34_Wall_2,
  NoSun,
  NoWind,
  ,
  4,
  17.8637,
  14.5728,
  12.8500,
  17.8637,
  14.5728,
  7.0000,
  17.8637,
  11.0810,
  7.0000,
  17.8637,
  11.0810,
  12.8500;

BuildingSurface:Detailed,
  L2_Zone_36_Floor_1,
  Floor,
  BIM2BEM_int_slab_floor,
  L2_Zone_36,
  ,
  Surface,
  L1_Zone_17_Ceiling_3,
  NoSun,
  NoWind,
  ,
  4,
  27.9808,
  14.5728,
  7.0000,
  27.9808,
  11.0810,
  7.0000,
  21.1142,
  11.0810,
  7.0000,
  21.1142,
  14.5728,
  7.0000;

BuildingSurface:Detailed,
  L2_Zone_36_Floor_2,
  Floor,
  Interior Floor,
  L2_Zone_36,
  ,
  Adiabatic,
  ,
  NoSun,
  NoWind,
  ,
  4,
  27.9985,
  14.5728,
  7.0000,
  27.9985,
  11.0810,
  7.0000,
  27.9808,
  11.0810,
  7.0000,
  27.9808,
  14.5728,
  7.0000;

BuildingSurface:Detailed,
  L2_Zone_36_Ceiling_1,
  Ceiling,
  BIM2BEM_int_slab_ceiling,
  L2_Zone_36,
  ,
  Surface,
  L3_Zone_53_Floor_1,
  NoSun,
  NoWind,
  ,
  4,
  21.1394,
  14.5728,
  12.8500,
  21.1394,
  11.0810,
  12.8500,
  27.9985,
  11.0810,
  12.8500,
  27.9985,
  14.5728,
  12.8500;

BuildingSurface:Detailed,
  L2_Zone_36_Roof_1,
  Roof,
  Interior Ceiling,
  L2_Zone_36,
  ,
  Adiabatic,
  ,
  NoSun,
  NoWind,
  ,
  4,
  21.1142,
  14.5728,
  12.8500,
  21.1142,
  11.0810,
  12.8500,
  21.1394,
  11.0810,
  12.8500,
  21.1394,
  14.5728,
  12.8500;

BuildingSurface:Detailed,
  L2_Zone_36_Wall_1,
  Wall,
  BIM2BEM_Interior_Wall,
  L2_Zone_36,
  ,
  Surface,
  L2_Zone_30_Wall_11,
  NoSun,
  NoWind,
  ,
  4,
  21.1142,
  11.0810,
  12.8500,
  21.1142,
  11.0810,
  7.0000,
  27.9985,
  11.0810,
  7.0000,
  27.9985,
  11.0810,
  12.8500;

BuildingSurface:Detailed,
  L2_Zone_36_Wall_2,
  Wall,
  BIM2BEM_Interior_Wall,
  L2_Zone_36,
  ,
  Surface,
  L2_Zone_40_Wall_12,
  NoSun,
  NoWind,
  ,
  4,
  27.9985,
  11.0810,
  12.8500,
  27.9985,
  11.0810,
  7.0000,
  27.9985,
  12.4649,
  7.0000,
  27.9985,
  12.4649,
  12.8500;

BuildingSurface:Detailed,
  L2_Zone_36_Wall_3,
  Wall,
  BIM2BEM_Interior_Wall,
  L2_Zone_36,
  ,
  Adiabatic,
  ,
  NoSun,
  NoWind,
  ,
  4,
  27.9985,
  12.4649,
  12.8500,
  27.9985,
  12.4649,
  7.0000,
  27.9985,
  12.5659,
  7.0000,
  27.9985,
  12.5659,
  12.8500;

BuildingSurface:Detailed,
  L2_Zone_36_Wall_4,
  Wall,
  BIM2BEM_Interior_Wall,
  L2_Zone_36,
  ,
  Surface,
  L2_Zone_37_Wall_1,
  NoSun,
  NoWind,
  ,
  4,
  27.9985,
  12.5659,
  12.8500,
  27.9985,
  12.5659,
  7.0000,
  27.9985,
  14.5728,
  7.0000,
  27.9985,
  14.5728,
  12.8500;

BuildingSurface:Detailed,
  L2_Zone_36_Wall_5,
  Wall,
  BIM2BEM_nonres_ext_wall,
  L2_Zone_36,
  ,
  Outdoors,
  ,
  SunExposed,
  WindExposed,
  ,
  4,
  27.9985,
  14.5728,
  12.8500,
  27.9985,
  14.5728,
  7.0000,
  21.1142,
  14.5728,
  7.0000,
  21.1142,
  14.5728,
  12.8500;

BuildingSurface:Detailed,
  L2_Zone_36_Wall_6,
  Wall,
  BIM2BEM_Interior_Wall,
  L2_Zone_36,
  ,
  Surface,
  L2_Zone_35_Wall_2,
  NoSun,
  NoWind,
  ,
  4,
  21.1142,
  14.5728,
  12.8500,
  21.1142,
  14.5728,
  7.0000,
  21.1142,
  11.0810,
  7.0000,
  21.1142,
  11.0810,
  12.8500;

BuildingSurface:Detailed,
  L2_Zone_37_Floor_1,
  Floor,
  BIM2BEM_int_slab_floor,
  L2_Zone_37,
  ,
  Surface,
  L1_Zone_18_Ceiling_2,
  NoSun,
  NoWind,
  ,
  4,
  30.8035,
  14.5728,
  7.0000,
  30.8035,
  12.5659,
  7.0000,
  28.0995,
  12.5659,
  7.0000,
  28.0995,
  14.5728,
  7.0000;

BuildingSurface:Detailed,
  L2_Zone_37_Ceiling_1,
  Ceiling,
  BIM2BEM_int_slab_ceiling,
  L2_Zone_37,
  ,
  Surface,
  L3_Zone_57_Floor_2,
  NoSun,
  NoWind,
  ,
  4,
  28.1044,
  14.5728,
  12.8500,
  28.1044,
  12.5659,
  12.8500,
  30.8035,
  12.5659,
  12.8500,
  30.8035,
  14.5728,
  12.8500;

BuildingSurface:Detailed,
  L2_Zone_37_Roof_1,
  Roof,
  Interior Ceiling,
  L2_Zone_37,
  ,
  Adiabatic,
  ,
  NoSun,
  NoWind,
  ,
  4,
  28.0995,
  14.5728,
  12.8500,
  28.0995,
  12.5659,
  12.8500,
  28.1044,
  12.5659,
  12.8500,
  28.1044,
  14.5728,
  12.8500;

BuildingSurface:Detailed,
  L2_Zone_37_Wall_1,
  Wall,
  BIM2BEM_Interior_Wall,
  L2_Zone_37,
  ,
  Surface,
  L2_Zone_36_Wall_4,
  NoSun,
  NoWind,
  ,
  4,
  28.0995,
  14.5728,
  12.8500,
  28.0995,
  14.5728,
  7.0000,
  28.0995,
  12.5659,
  7.0000,
  28.0995,
  12.5659,
  12.8500;

BuildingSurface:Detailed,
  L2_Zone_37_Wall_2,
  Wall,
  BIM2BEM_Interior_Wall,
  L2_Zone_37,
  ,
  Surface,
  L2_Zone_40_Wall_3,
  NoSun,
  NoWind,
  ,
  4,
  28.0995,
  12.5659,
  12.8500,
  28.0995,
  12.5659,
  7.0000,
  30.8035,
  12.5659,
  7.0000,
  30.8035,
  12.5659,
  12.8500;

BuildingSurface:Detailed,
  L2_Zone_37_Wall_3,
  Wall,
  BIM2BEM_Interior_Wall,
  L2_Zone_37,
  ,
  Surface,
  L2_Zone_38_Wall_4,
  NoSun,
  NoWind,
  ,
  4,
  30.8035,
  12.5659,
  12.8500,
  30.8035,
  12.5659,
  7.0000,
  30.8035,
  14.5728,
  7.0000,
  30.8035,
  14.5728,
  12.8500;

BuildingSurface:Detailed,
  L2_Zone_37_Wall_4,
  Wall,
  BIM2BEM_nonres_ext_wall,
  L2_Zone_37,
  ,
  Outdoors,
  ,
  SunExposed,
  WindExposed,
  ,
  4,
  30.8035,
  14.5728,
  12.8500,
  30.8035,
  14.5728,
  7.0000,
  28.0995,
  14.5728,
  7.0000,
  28.0995,
  14.5728,
  12.8500;

BuildingSurface:Detailed,
  L2_Zone_38_Floor_1,
  Floor,
  BIM2BEM_int_slab_floor,
  L2_Zone_38,
  ,
  Surface,
  L1_Zone_18_Ceiling_3,
  NoSun,
  NoWind,
  ,
  4,
  32.6035,
  14.5728,
  7.0000,
  32.6035,
  12.5659,
  7.0000,
  30.9045,
  12.5659,
  7.0000,
  30.9045,
  14.5728,
  7.0000;

BuildingSurface:Detailed,
  L2_Zone_38_Ceiling_1,
  Ceiling,
  BIM2BEM_int_slab_ceiling,
  L2_Zone_38,
  ,
  Surface,
  L3_Zone_57_Floor_3,
  NoSun,
  NoWind,
  ,
  4,
  30.9045,
  14.5728,
  12.8500,
  30.9045,
  12.5659,
  12.8500,
  32.6035,
  12.5659,
  12.8500,
  32.6035,
  14.5728,
  12.8500;

BuildingSurface:Detailed,
  L2_Zone_38_Wall_1,
  Wall,
  BIM2BEM_Interior_Wall,
  L2_Zone_38,
  ,
  Surface,
  L2_Zone_40_Wall_5,
  NoSun,
  NoWind,
  ,
  4,
  30.9045,
  12.5659,
  12.8500,
  30.9045,
  12.5659,
  7.0000,
  32.6035,
  12.5659,
  7.0000,
  32.6035,
  12.5659,
  12.8500;

BuildingSurface:Detailed,
  L2_Zone_38_Wall_2,
  Wall,
  BIM2BEM_Interior_Wall,
  L2_Zone_38,
  ,
  Surface,
  L2_Zone_39_Wall_3,
  NoSun,
  NoWind,
  ,
  4,
  32.6035,
  12.5659,
  12.8500,
  32.6035,
  12.5659,
  7.0000,
  32.6035,
  14.5728,
  7.0000,
  32.6035,
  14.5728,
  12.8500;

BuildingSurface:Detailed,
  L2_Zone_38_Wall_3,
  Wall,
  BIM2BEM_nonres_ext_wall,
  L2_Zone_38,
  ,
  Outdoors,
  ,
  SunExposed,
  WindExposed,
  ,
  4,
  32.6035,
  14.5728,
  12.8500,
  32.6035,
  14.5728,
  7.0000,
  30.9045,
  14.5728,
  7.0000,
  30.9045,
  14.5728,
  12.8500;

BuildingSurface:Detailed,
  L2_Zone_38_Wall_4,
  Wall,
  BIM2BEM_Interior_Wall,
  L2_Zone_38,
  ,
  Surface,
  L2_Zone_37_Wall_3,
  NoSun,
  NoWind,
  ,
  4,
  30.9045,
  14.5728,
  12.8500,
  30.9045,
  14.5728,
  7.0000,
  30.9045,
  12.5659,
  7.0000,
  30.9045,
  12.5659,
  12.8500;

BuildingSurface:Detailed,
  L2_Zone_39_Floor_1,
  Floor,
  BIM2BEM_int_slab_floor,
  L2_Zone_39,
  ,
  Surface,
  L1_Zone_18_Ceiling_4,
  NoSun,
  NoWind,
  ,
  4,
  34.5058,
  14.5728,
  7.0000,
  34.5058,
  12.5659,
  7.0000,
  32.7045,
  12.5659,
  7.0000,
  32.7045,
  14.5728,
  7.0000;

BuildingSurface:Detailed,
  L2_Zone_39_Ceiling_1,
  Ceiling,
  BIM2BEM_int_slab_ceiling,
  L2_Zone_39,
  ,
  Surface,
  L3_Zone_57_Floor_4,
  NoSun,
  NoWind,
  ,
  4,
  32.7045,
  14.5728,
  12.8500,
  32.7045,
  12.5659,
  12.8500,
  34.5058,
  12.5659,
  12.8500,
  34.5058,
  14.5728,
  12.8500;

BuildingSurface:Detailed,
  L2_Zone_39_Wall_1,
  Wall,
  BIM2BEM_nonres_ext_wall,
  L2_Zone_39,
  ,
  Outdoors,
  ,
  SunExposed,
  WindExposed,
  ,
  4,
  34.5058,
  12.5659,
  12.8500,
  34.5058,
  12.5659,
  7.0000,
  34.5058,
  14.5728,
  7.0000,
  34.5058,
  14.5728,
  12.8500;

BuildingSurface:Detailed,
  L2_Zone_39_Wall_2,
  Wall,
  BIM2BEM_nonres_ext_wall,
  L2_Zone_39,
  ,
  Outdoors,
  ,
  SunExposed,
  WindExposed,
  ,
  4,
  34.5058,
  14.5728,
  12.8500,
  34.5058,
  14.5728,
  7.0000,
  32.7045,
  14.5728,
  7.0000,
  32.7045,
  14.5728,
  12.8500;

BuildingSurface:Detailed,
  L2_Zone_39_Wall_3,
  Wall,
  BIM2BEM_Interior_Wall,
  L2_Zone_39,
  ,
  Surface,
  L2_Zone_38_Wall_2,
  NoSun,
  NoWind,
  ,
  4,
  32.7045,
  14.5728,
  12.8500,
  32.7045,
  14.5728,
  7.0000,
  32.7045,
  12.5659,
  7.0000,
  32.7045,
  12.5659,
  12.8500;

BuildingSurface:Detailed,
  L2_Zone_39_Wall_4,
  Wall,
  BIM2BEM_Interior_Wall,
  L2_Zone_39,
  ,
  Surface,
  L2_Zone_40_Wall_7,
  NoSun,
  NoWind,
  ,
  4,
  32.7045,
  12.5659,
  12.8500,
  32.7045,
  12.5659,
  7.0000,
  33.0035,
  12.5659,
  7.0000,
  33.0035,
  12.5659,
  12.8500;

BuildingSurface:Detailed,
  L2_Zone_39_Wall_5,
  Wall,
  BIM2BEM_Interior_Wall,
  L2_Zone_39,
  ,
  Adiabatic,
  ,
  NoSun,
  NoWind,
  ,
  4,
  33.0035,
  12.5659,
  12.8500,
  33.0035,
  12.5659,
  7.0000,
  34.5058,
  12.5659,
  7.0000,
  34.5058,
  12.5659,
  12.8500;

BuildingSurface:Detailed,
  L2_Zone_40_Floor_1,
  Floor,
  BIM2BEM_int_slab_floor,
  L2_Zone_40,
  ,
  Surface,
  L1_Zone_18_Ceiling_1,
  NoSun,
  NoWind,
  ,
  4,
  33.0035,
  12.4649,
  7.0000,
  33.0035,
  5.0738,
  7.0000,
  28.0995,
  5.0738,
  7.0000,
  28.0995,
  12.4649,
  7.0000;

BuildingSurface:Detailed,
  L2_Zone_40_Ceiling_1,
  Ceiling,
  BIM2BEM_int_slab_ceiling,
  L2_Zone_40,
  ,
  Surface,
  L3_Zone_47_Floor_5,
  NoSun,
  NoWind,
  ,
  4,
  28.0995,
  10.9710,
  12.8500,
  28.0995,
  8.6720,
  12.8500,
  30.5034,
  8.6720,
  12.8500,
  30.5034,
  10.9710,
  12.8500;

BuildingSurface:Detailed,
  L2_Zone_40_Ceiling_2,
  Ceiling,
  BIM2BEM_int_slab_ceiling,
  L2_Zone_40,
  ,
  Surface,
  L3_Zone_55_Floor_1,
  NoSun,
  NoWind,
  ,
  4,
  28.1044,
  8.5710,
  12.8500,
  28.1044,
  5.0738,
  12.8500,
  33.0035,
  5.0738,
  12.8500,
  33.0035,
  8.5710,
  12.8500;

BuildingSurface:Detailed,
  L2_Zone_40_Ceiling_3,
  Ceiling,
  BIM2BEM_int_slab_ceiling,
  L2_Zone_40,
  ,
  Surface,
  L3_Zone_57_Floor_1,
  NoSun,
  NoWind,
  ,
  4,
  28.1044,
  12.4649,
  12.8500,
  28.1044,
  11.0720,
  12.8500,
  33.0035,
  11.0720,
  12.8500,
  33.0035,
  12.4649,
  12.8500;

BuildingSurface:Detailed,
  L2_Zone_40_Ceiling_4,
  Ceiling,
  BIM2BEM_int_slab_ceiling,
  L2_Zone_40,
  ,
  Surface,
  L3_Zone_56_Floor_1,
  NoSun,
  NoWind,
  ,
  4,
  30.6044,
  10.9710,
  12.8500,
  30.6044,
  8.6720,
  12.8500,
  33.0035,
  8.6720,
  12.8500,
  33.0035,
  10.9710,
  12.8500;

BuildingSurface:Detailed,
  L2_Zone_40_Roof_1,
  Roof,
  Interior Ceiling,
  L2_Zone_40,
  ,
  Adiabatic,
  ,
  NoSun,
  NoWind,
  ,
  4,
  28.0995,
  8.5710,
  12.8500,
  28.0995,
  5.0738,
  12.8500,
  28.1044,
  5.0738,
  12.8500,
  28.1044,
  8.5710,
  12.8500;

BuildingSurface:Detailed,
  L2_Zone_40_Roof_2,
  Roof,
  Interior Ceiling,
  L2_Zone_40,
  ,
  Adiabatic,
  ,
  NoSun,
  NoWind,
  ,
  4,
  28.0995,
  12.4649,
  12.8500,
  28.0995,
  11.0720,
  12.8500,
  28.1044,
  11.0720,
  12.8500,
  28.1044,
  12.4649,
  12.8500;

BuildingSurface:Detailed,
  L2_Zone_40_Roof_3,
  Roof,
  Interior Ceiling,
  L2_Zone_40,
  ,
  Adiabatic,
  ,
  NoSun,
  NoWind,
  ,
  4,
  28.0995,
  8.6720,
  12.8500,
  28.0995,
  8.5710,
  12.8500,
  33.0035,
  8.5710,
  12.8500,
  33.0035,
  8.6720,
  12.8500;

BuildingSurface:Detailed,
  L2_Zone_40_Roof_4,
  Roof,
  Interior Ceiling,
  L2_Zone_40,
  ,
  Adiabatic,
  ,
  NoSun,
  NoWind,
  ,
  4,
  28.0995,
  11.0720,
  12.8500,
  28.0995,
  10.9710,
  12.8500,
  33.0035,
  10.9710,
  12.8500,
  33.0035,
  11.0720,
  12.8500;

BuildingSurface:Detailed,
  L2_Zone_40_Roof_5,
  Roof,
  Interior Ceiling,
  L2_Zone_40,
  ,
  Adiabatic,
  ,
  NoSun,
  NoWind,
  ,
  4,
  30.5034,
  10.9710,
  12.8500,
  30.5034,
  8.6720,
  12.8500,
  30.6044,
  8.6720,
  12.8500,
  30.6044,
  10.9710,
  12.8500;

BuildingSurface:Detailed,
  L2_Zone_40_Wall_1,
  Wall,
  BIM2BEM_nonres_ext_wall,
  L2_Zone_40,
  ,
  Outdoors,
  ,
  SunExposed,
  WindExposed,
  ,
  4,
  28.0995,
  5.0738,
  12.8500,
  28.0995,
  5.0738,
  7.0000,
  33.0035,
  5.0738,
  7.0000,
  33.0035,
  5.0738,
  12.8500;

BuildingSurface:Detailed,
  L2_Zone_40_Wall_2,
  Wall,
  BIM2BEM_nonres_ext_wall,
  L2_Zone_40,
  ,
  Outdoors,
  ,
  SunExposed,
  WindExposed,
  ,
  4,
  33.0035,
  5.0738,
  12.8500,
  33.0035,
  5.0738,
  7.0000,
  33.0035,
  12.4649,
  7.0000,
  33.0035,
  12.4649,
  12.8500;

BuildingSurface:Detailed,
  L2_Zone_40_Wall_3,
  Wall,
  BIM2BEM_Interior_Wall,
  L2_Zone_40,
  ,
  Surface,
  L2_Zone_37_Wall_2,
  NoSun,
  NoWind,
  ,
  4,
  30.8035,
  12.4649,
  12.8500,
  30.8035,
  12.4649,
  7.0000,
  28.0995,
  12.4649,
  7.0000,
  28.0995,
  12.4649,
  12.8500;

BuildingSurface:Detailed,
  L2_Zone_40_Wall_4,
  Wall,
  BIM2BEM_Interior_Wall,
  L2_Zone_40,
  ,
  Adiabatic,
  ,
  NoSun,
  NoWind,
  ,
  4,
  30.9045,
  12.4649,
  12.8500,
  30.9045,
  12.4649,
  7.0000,
  30.8035,
  12.4649,
  7.0000,
  30.8035,
  12.4649,
  12.8500;

BuildingSurface:Detailed,
  L2_Zone_40_Wall_5,
  Wall,
  BIM2BEM_Interior_Wall,
  L2_Zone_40,
  ,
  Surface,
  L2_Zone_38_Wall_1,
  NoSun,
  NoWind,
  ,
  4,
  32.6035,
  12.4649,
  12.8500,
  32.6035,
  12.4649,
  7.0000,
  30.9045,
  12.4649,
  7.0000,
  30.9045,
  12.4649,
  12.8500;

BuildingSurface:Detailed,
  L2_Zone_40_Wall_6,
  Wall,
  BIM2BEM_Interior_Wall,
  L2_Zone_40,
  ,
  Adiabatic,
  ,
  NoSun,
  NoWind,
  ,
  4,
  32.7045,
  12.4649,
  12.8500,
  32.7045,
  12.4649,
  7.0000,
  32.6035,
  12.4649,
  7.0000,
  32.6035,
  12.4649,
  12.8500;

BuildingSurface:Detailed,
  L2_Zone_40_Wall_7,
  Wall,
  BIM2BEM_Interior_Wall,
  L2_Zone_40,
  ,
  Surface,
  L2_Zone_39_Wall_4,
  NoSun,
  NoWind,
  ,
  4,
  33.0035,
  12.4649,
  12.8500,
  33.0035,
  12.4649,
  7.0000,
  32.7045,
  12.4649,
  7.0000,
  32.7045,
  12.4649,
  12.8500;

BuildingSurface:Detailed,
  L2_Zone_40_Wall_8,
  Wall,
  BIM2BEM_Interior_Wall,
  L2_Zone_40,
  ,
  Surface,
  L2_Zone_26_Wall_2,
  NoSun,
  NoWind,
  ,
  4,
  28.0995,
  8.5710,
  12.8500,
  28.0995,
  8.5710,
  7.0000,
  28.0995,
  5.0738,
  7.0000,
  28.0995,
  5.0738,
  12.8500;

BuildingSurface:Detailed,
  L2_Zone_40_Wall_9,
  Wall,
  BIM2BEM_Interior_Wall,
  L2_Zone_40,
  ,
  Adiabatic,
  ,
  NoSun,
  NoWind,
  ,
  4,
  28.0995,
  8.6720,
  12.8500,
  28.0995,
  8.6720,
  7.0000,
  28.0995,
  8.5710,
  7.0000,
  28.0995,
  8.5710,
  12.8500;

BuildingSurface:Detailed,
  L2_Zone_40_Wall_10,
  Wall,
  BIM2BEM_Interior_Wall,
  L2_Zone_40,
  ,
  Surface,
  L2_Zone_30_Wall_9,
  NoSun,
  NoWind,
  ,
  4,
  28.0995,
  10.9800,
  12.8500,
  28.0995,
  10.9800,
  7.0000,
  28.0995,
  8.6720,
  7.0000,
  28.0995,
  8.6720,
  12.8500;

BuildingSurface:Detailed,
  L2_Zone_40_Wall_11,
  Wall,
  BIM2BEM_Interior_Wall,
  L2_Zone_40,
  ,
  Adiabatic,
  ,
  NoSun,
  NoWind,
  ,
  4,
  28.0995,
  11.0810,
  12.8500,
  28.0995,
  11.0810,
  7.0000,
  28.0995,
  10.9800,
  7.0000,
  28.0995,
  10.9800,
  12.8500;

BuildingSurface:Detailed,
  L2_Zone_40_Wall_12,
  Wall,
  BIM2BEM_Interior_Wall,
  L2_Zone_40,
  ,
  Surface,
  L2_Zone_36_Wall_2,
  NoSun,
  NoWind,
  ,
  4,
  28.0995,
  12.4649,
  12.8500,
  28.0995,
  12.4649,
  7.0000,
  28.0995,
  11.0810,
  7.0000,
  28.0995,
  11.0810,
  12.8500;

BuildingSurface:Detailed,
  L2_Zone_42_Floor_1,
  Floor,
  BIM2BEM_int_slab_floor,
  L2_Zone_42,
  ,
  Surface,
  L1_Zone_19_Ceiling_1,
  NoSun,
  NoWind,
  ,
  4,
  20.9808,
  8.5710,
  7.0000,
  20.9808,
  5.0738,
  7.0000,
  14.0044,
  5.0738,
  7.0000,
  14.0044,
  8.5710,
  7.0000;

BuildingSurface:Detailed,
  L2_Zone_42_Floor_2,
  Floor,
  Interior Floor,
  L2_Zone_42,
  ,
  Adiabatic,
  ,
  NoSun,
  NoWind,
  ,
  4,
  21.0058,
  8.5710,
  7.0000,
  21.0058,
  5.0738,
  7.0000,
  20.9808,
  5.0738,
  7.0000,
  20.9808,
  8.5710,
  7.0000;

BuildingSurface:Detailed,
  L2_Zone_42_Ceiling_1,
  Ceiling,
  BIM2BEM_int_slab_ceiling,
  L2_Zone_42,
  ,
  Surface,
  L3_Zone_50_Floor_1,
  NoSun,
  NoWind,
  ,
  4,
  14.0044,
  8.5710,
  12.8500,
  14.0044,
  5.0738,
  12.8500,
  21.0058,
  5.0738,
  12.8500,
  21.0058,
  8.5710,
  12.8500;

BuildingSurface:Detailed,
  L2_Zone_42_Wall_1,
  Wall,
  BIM2BEM_Interior_Wall,
  L2_Zone_42,
  ,
  Surface,
  L2_Zone_29_Wall_3,
  NoSun,
  NoWind,
  ,
  4,
  14.0044,
  5.0738,
  12.8500,
  14.0044,
  5.0738,
  7.0000,
  17.0035,
  5.0738,
  7.0000,
  17.0035,
  5.0738,
  12.8500;

BuildingSurface:Detailed,
  L2_Zone_42_Wall_2,
  Wall,
  BIM2BEM_Interior_Wall,
  L2_Zone_42,
  ,
  Adiabatic,
  ,
  NoSun,
  NoWind,
  ,
  4,
  17.0035,
  5.0738,
  12.8500,
  17.0035,
  5.0738,
  7.0000,
  17.1045,
  5.0738,
  7.0000,
  17.1045,
  5.0738,
  12.8500;

BuildingSurface:Detailed,
  L2_Zone_42_Wall_3,
  Wall,
  BIM2BEM_Interior_Wall,
  L2_Zone_42,
  ,
  Surface,
  L2_Zone_43_Wall_1,
  NoSun,
  NoWind,
  ,
  4,
  17.1045,
  5.0738,
  12.8500,
  17.1045,
  5.0738,
  7.0000,
  21.0058,
  5.0738,
  7.0000,
  21.0058,
  5.0738,
  12.8500;

BuildingSurface:Detailed,
  L2_Zone_42_Wall_4,
  Wall,
  BIM2BEM_Interior_Wall,
  L2_Zone_42,
  ,
  Surface,
  L2_Zone_26_Wall_4,
  NoSun,
  NoWind,
  ,
  4,
  21.0058,
  5.0738,
  12.8500,
  21.0058,
  5.0738,
  7.0000,
  21.0058,
  8.5710,
  7.0000,
  21.0058,
  8.5710,
  12.8500;

BuildingSurface:Detailed,
  L2_Zone_42_Wall_5,
  Wall,
  BIM2BEM_Interior_Wall,
  L2_Zone_42,
  ,
  Surface,
  L2_Zone_30_Wall_5,
  NoSun,
  NoWind,
  ,
  4,
  21.0058,
  8.5710,
  12.8500,
  21.0058,
  8.5710,
  7.0000,
  14.0044,
  8.5710,
  7.0000,
  14.0044,
  8.5710,
  12.8500;

BuildingSurface:Detailed,
  L2_Zone_42_Wall_6,
  Wall,
  BIM2BEM_Interior_Wall,
  L2_Zone_42,
  ,
  Surface,
  L2_Zone_30_Wall_2,
  NoSun,
  NoWind,
  ,
  4,
  14.0044,
  8.5710,
  12.8500,
  14.0044,
  8.5710,
  7.0000,
  14.0044,
  5.0738,
  7.0000,
  14.0044,
  5.0738,
  12.8500;

BuildingSurface:Detailed,
  L2_Zone_43_Floor_1,
  Floor,
  Exterior Floor,
  L2_Zone_43,
  ,
  Outdoors,
  ,
  SunExposed,
  WindExposed,
  ,
  4,
  21.0058,
  4.9728,
  7.0000,
  21.0058,
  -1.3342,
  7.0000,
  17.1045,
  -1.3342,
  7.0000,
  17.1045,
  4.9728,
  7.0000;

BuildingSurface:Detailed,
  L2_Zone_43_Roof_1,
  Roof,
  BIM2BEM_nonres_roof,
  L2_Zone_43,
  ,
  Outdoors,
  ,
  SunExposed,
  WindExposed,
  ,
  4,
  17.1045,
  4.9728,
  12.8500,
  17.1045,
  -1.3342,
  12.8500,
  21.0058,
  -1.3342,
  12.8500,
  21.0058,
  4.9728,
  12.8500;

BuildingSurface:Detailed,
  L2_Zone_43_Wall_1,
  Wall,
  BIM2BEM_Interior_Wall,
  L2_Zone_43,
  ,
  Surface,
  L2_Zone_42_Wall_3,
  NoSun,
  NoWind,
  ,
  4,
  21.0058,
  4.9728,
  12.8500,
  21.0058,
  4.9728,
  7.0000,
  17.1045,
  4.9728,
  7.0000,
  17.1045,
  4.9728,
  12.8500;

BuildingSurface:Detailed,
  L2_Zone_43_Wall_2,
  Wall,
  BIM2BEM_Interior_Wall,
  L2_Zone_43,
  ,
  Surface,
  L2_Zone_29_Wall_9,
  NoSun,
  NoWind,
  ,
  4,
  17.1045,
  4.9728,
  12.8500,
  17.1045,
  4.9728,
  7.0000,
  17.1045,
  -1.3342,
  7.0000,
  17.1045,
  -1.3342,
  12.8500;

BuildingSurface:Detailed,
  L2_Zone_43_Wall_3,
  Wall,
  BIM2BEM_Interior_Wall,
  L2_Zone_43,
  ,
  Surface,
  L2_Zone_44_Wall_3,
  NoSun,
  NoWind,
  ,
  4,
  17.1045,
  -1.3342,
  12.8500,
  17.1045,
  -1.3342,
  7.0000,
  21.0058,
  -1.3342,
  7.0000,
  21.0058,
  -1.3342,
  12.8500;

BuildingSurface:Detailed,
  L2_Zone_43_Wall_4,
  Wall,
  BIM2BEM_nonres_ext_wall,
  L2_Zone_43,
  ,
  Outdoors,
  ,
  SunExposed,
  WindExposed,
  ,
  4,
  21.0058,
  -1.3342,
  12.8500,
  21.0058,
  -1.3342,
  7.0000,
  21.0058,
  4.9728,
  7.0000,
  21.0058,
  4.9728,
  12.8500;

BuildingSurface:Detailed,
  L2_Zone_44_Floor_1,
  Floor,
  Exterior Floor,
  L2_Zone_44,
  ,
  Outdoors,
  ,
  SunExposed,
  WindExposed,
  ,
  4,
  21.0058,
  -1.4352,
  7.0000,
  21.0058,
  -5.8262,
  7.0000,
  17.1045,
  -5.8262,
  7.0000,
  17.1045,
  -1.4352,
  7.0000;

BuildingSurface:Detailed,
  L2_Zone_44_Roof_1,
  Roof,
  BIM2BEM_nonres_roof,
  L2_Zone_44,
  ,
  Outdoors,
  ,
  SunExposed,
  WindExposed,
  ,
  4,
  17.1045,
  -1.4352,
  12.8500,
  17.1045,
  -5.8262,
  12.8500,
  21.0058,
  -5.8262,
  12.8500,
  21.0058,
  -1.4352,
  12.8500;

BuildingSurface:Detailed,
  L2_Zone_44_Wall_1,
  Wall,
  BIM2BEM_nonres_ext_wall,
  L2_Zone_44,
  ,
  Outdoors,
  ,
  SunExposed,
  WindExposed,
  ,
  4,
  17.1045,
  -5.8262,
  12.8500,
  17.1045,
  -5.8262,
  7.0000,
  21.0058,
  -5.8262,
  7.0000,
  21.0058,
  -5.8262,
  12.8500;

BuildingSurface:Detailed,
  L2_Zone_44_Wall_2,
  Wall,
  BIM2BEM_nonres_ext_wall,
  L2_Zone_44,
  ,
  Outdoors,
  ,
  SunExposed,
  WindExposed,
  ,
  4,
  21.0058,
  -5.8262,
  12.8500,
  21.0058,
  -5.8262,
  7.0000,
  21.0058,
  -1.4352,
  7.0000,
  21.0058,
  -1.4352,
  12.8500;

BuildingSurface:Detailed,
  L2_Zone_44_Wall_3,
  Wall,
  BIM2BEM_Interior_Wall,
  L2_Zone_44,
  ,
  Surface,
  L2_Zone_43_Wall_3,
  NoSun,
  NoWind,
  ,
  4,
  21.0058,
  -1.4352,
  12.8500,
  21.0058,
  -1.4352,
  7.0000,
  17.1045,
  -1.4352,
  7.0000,
  17.1045,
  -1.4352,
  12.8500;

BuildingSurface:Detailed,
  L2_Zone_44_Wall_4,
  Wall,
  BIM2BEM_Interior_Wall,
  L2_Zone_44,
  ,
  Surface,
  L2_Zone_29_Wall_7,
  NoSun,
  NoWind,
  ,
  4,
  17.1045,
  -1.4352,
  12.8500,
  17.1045,
  -1.4352,
  7.0000,
  17.1045,
  -5.8262,
  7.0000,
  17.1045,
  -5.8262,
  12.8500;

BuildingSurface:Detailed,
  L3_Zone_45_Floor_1,
  Floor,
  BIM2BEM_int_slab_floor,
  L3_Zone_45,
  ,
  Surface,
  L2_Zone_31_Ceiling_1,
  NoSun,
  NoWind,
  ,
  4,
  11.4034,
  14.5728,
  13.0000,
  11.4034,
  10.6810,
  13.0000,
  7.5068,
  10.6810,
  13.0000,
  7.5068,
  14.5728,
  13.0000;

BuildingSurface:Detailed,
  L3_Zone_45_Floor_2,
  Floor,
  Interior Floor,
  L3_Zone_45,
  ,
  Adiabatic,
  ,
  NoSun,
  NoWind,
  ,
  4,
  11.4034,
  10.6810,
  13.0000,
  11.4034,
  10.6720,
  13.0000,
  7.5068,
  10.6720,
  13.0000,
  7.5068,
  10.6810,
  13.0000;

BuildingSurface:Detailed,
  L3_Zone_45_Ceiling_1,
  Ceiling,
  BIM2BEM_int_slab_ceiling,
  L3_Zone_45,
  ,
  Surface,
  L4_Zone_58_Floor_1,
  NoSun,
  NoWind,
  ,
  4,
  7.5068,
  14.5728,
  16.8500,
  7.5068,
  10.6920,
  16.8500,
  11.4034,
  10.6920,
  16.8500,
  11.4034,
  14.5728,
  16.8500;

BuildingSurface:Detailed,
  L3_Zone_45_Roof_1,
  Roof,
  Interior Ceiling,
  L3_Zone_45,
  ,
  Adiabatic,
  ,
  NoSun,
  NoWind,
  ,
  4,
  7.5068,
  10.6920,
  16.8500,
  7.5068,
  10.6720,
  16.8500,
  11.4034,
  10.6720,
  16.8500,
  11.4034,
  10.6920,
  16.8500;

BuildingSurface:Detailed,
  L3_Zone_45_Wall_1,
  Wall,
  BIM2BEM_nonres_ext_wall,
  L3_Zone_45,
  ,
  Outdoors,
  ,
  SunExposed,
  WindExposed,
  ,
  4,
  11.4034,
  14.5728,
  16.8500,
  11.4034,
  14.5728,
  13.0000,
  7.5068,
  14.5728,
  13.0000,
  7.5068,
  14.5728,
  16.8500;

BuildingSurface:Detailed,
  L3_Zone_45_Wall_2,
  Wall,
  BIM2BEM_nonres_ext_wall,
  L3_Zone_45,
  ,
  Outdoors,
  ,
  SunExposed,
  WindExposed,
  ,
  4,
  7.5068,
  14.5728,
  16.8500,
  7.5068,
  14.5728,
  13.0000,
  7.5068,
  10.6720,
  13.0000,
  7.5068,
  10.6720,
  16.8500;

BuildingSurface:Detailed,
  L3_Zone_45_Wall_3,
  Wall,
  BIM2BEM_Interior_Wall,
  L3_Zone_45,
  ,
  Surface,
  L3_Zone_47_Wall_31,
  NoSun,
  NoWind,
  ,
  4,
  7.5068,
  10.6720,
  16.8500,
  7.5068,
  10.6720,
  13.0000,
  11.4034,
  10.6720,
  13.0000,
  11.4034,
  10.6720,
  16.8500;

BuildingSurface:Detailed,
  L3_Zone_45_Wall_4,
  Wall,
  BIM2BEM_Interior_Wall,
  L3_Zone_45,
  ,
  Surface,
  L3_Zone_47_Wall_30,
  NoSun,
  NoWind,
  ,
  4,
  11.4034,
  10.6720,
  16.8500,
  11.4034,
  10.6720,
  13.0000,
  11.4034,
  10.9710,
  13.0000,
  11.4034,
  10.9710,
  16.8500;

BuildingSurface:Detailed,
  L3_Zone_45_Wall_5,
  Wall,
  BIM2BEM_Interior_Wall,
  L3_Zone_45,
  ,
  Adiabatic,
  ,
  NoSun,
  NoWind,
  ,
  4,
  11.4034,
  10.9710,
  16.8500,
  11.4034,
  10.9710,
  13.0000,
  11.4034,
  11.0720,
  13.0000,
  11.4034,
  11.0720,
  16.8500;

BuildingSurface:Detailed,
  L3_Zone_45_Wall_6,
  Wall,
  BIM2BEM_Interior_Wall,
  L3_Zone_45,
  ,
  Surface,
  L3_Zone_46_Wall_2,
  NoSun,
  NoWind,
  ,
  4,
  11.4034,
  11.0720,
  16.8500,
  11.4034,
  11.0720,
  13.0000,
  11.4034,
  14.5728,
  13.0000,
  11.4034,
  14.5728,
  16.8500;

BuildingSurface:Detailed,
  L3_Zone_46_Floor_1,
  Floor,
  BIM2BEM_int_slab_floor,
  L3_Zone_46,
  ,
  Surface,
  L2_Zone_32_Ceiling_1,
  NoSun,
  NoWind,
  ,
  4,
  13.9034,
  14.5728,
  13.0000,
  13.9034,
  11.0810,
  13.0000,
  11.5137,
  11.0810,
  13.0000,
  11.5137,
  14.5728,
  13.0000;

BuildingSurface:Detailed,
  L3_Zone_46_Floor_2,
  Floor,
  Interior Floor,
  L3_Zone_46,
  ,
  Adiabatic,
  ,
  NoSun,
  NoWind,
  ,
  4,
  11.5137,
  14.5728,
  13.0000,
  11.5137,
  11.0810,
  13.0000,
  11.5044,
  11.0810,
  13.0000,
  11.5044,
  14.5728,
  13.0000;

BuildingSurface:Detailed,
  L3_Zone_46_Floor_3,
  Floor,
  Interior Floor,
  L3_Zone_46,
  ,
  Adiabatic,
  ,
  NoSun,
  NoWind,
  ,
  4,
  13.9034,
  11.0810,
  13.0000,
  13.9034,
  11.0720,
  13.0000,
  11.5044,
  11.0720,
  13.0000,
  11.5044,
  11.0810,
  13.0000;

BuildingSurface:Detailed,
  L3_Zone_46_Ceiling_1,
  Ceiling,
  BIM2BEM_int_slab_ceiling,
  L3_Zone_46,
  ,
  Surface,
  L4_Zone_58_Floor_3,
  NoSun,
  NoWind,
  ,
  4,
  11.5044,
  14.5728,
  16.8500,
  11.5044,
  11.0720,
  16.8500,
  13.8963,
  11.0720,
  16.8500,
  13.8963,
  14.5728,
  16.8500;

BuildingSurface:Detailed,
  L3_Zone_46_Roof_1,
  Roof,
  Interior Ceiling,
  L3_Zone_46,
  ,
  Adiabatic,
  ,
  NoSun,
  NoWind,
  ,
  4,
  13.8963,
  14.5728,
  16.8500,
  13.8963,
  11.0720,
  16.8500,
  13.9034,
  11.0720,
  16.8500,
  13.9034,
  14.5728,
  16.8500;

BuildingSurface:Detailed,
  L3_Zone_46_Wall_1,
  Wall,
  BIM2BEM_nonres_ext_wall,
  L3_Zone_46,
  ,
  Outdoors,
  ,
  SunExposed,
  WindExposed,
  ,
  4,
  13.9034,
  14.5728,
  16.8500,
  13.9034,
  14.5728,
  13.0000,
  11.5044,
  14.5728,
  13.0000,
  11.5044,
  14.5728,
  16.8500;

BuildingSurface:Detailed,
  L3_Zone_46_Wall_2,
  Wall,
  BIM2BEM_Interior_Wall,
  L3_Zone_46,
  ,
  Surface,
  L3_Zone_45_Wall_6,
  NoSun,
  NoWind,
  ,
  4,
  11.5044,
  14.5728,
  16.8500,
  11.5044,
  14.5728,
  13.0000,
  11.5044,
  11.0720,
  13.0000,
  11.5044,
  11.0720,
  16.8500;

BuildingSurface:Detailed,
  L3_Zone_46_Wall_3,
  Wall,
  BIM2BEM_Interior_Wall,
  L3_Zone_46,
  ,
  Surface,
  L3_Zone_47_Wall_27,
  NoSun,
  NoWind,
  ,
  4,
  11.5044,
  11.0720,
  16.8500,
  11.5044,
  11.0720,
  13.0000,
  13.9034,
  11.0720,
  13.0000,
  13.9034,
  11.0720,
  16.8500;

BuildingSurface:Detailed,
  L3_Zone_46_Wall_4,
  Wall,
  BIM2BEM_Interior_Wall,
  L3_Zone_46,
  ,
  Surface,
  L3_Zone_49_Wall_2,
  NoSun,
  NoWind,
  ,
  4,
  13.9034,
  11.0720,
  16.8500,
  13.9034,
  11.0720,
  13.0000,
  13.9034,
  14.5728,
  13.0000,
  13.9034,
  14.5728,
  16.8500;

BuildingSurface:Detailed,
  L3_Zone_47_Floor_1,
  Floor,
  BIM2BEM_int_slab_floor,
  L3_Zone_47,
  ,
  Surface,
  L2_Zone_30_Ceiling_1,
  NoSun,
  NoWind,
  ,
  4,
  13.9034,
  8.6720,
  13.0000,
  13.9034,
  5.0738,
  13.0000,
  7.5068,
  5.0738,
  13.0000,
  7.5068,
  8.6720,
  13.0000;

BuildingSurface:Detailed,
  L3_Zone_47_Floor_2,
  Floor,
  BIM2BEM_int_slab_floor,
  L3_Zone_47,
  ,
  Surface,
  L2_Zone_30_Ceiling_2,
  NoSun,
  NoWind,
  ,
  4,
  27.9985,
  10.5710,
  13.0000,
  27.9985,
  8.6720,
  13.0000,
  7.5068,
  8.6720,
  13.0000,
  7.5068,
  10.5710,
  13.0000;

BuildingSurface:Detailed,
  L3_Zone_47_Floor_3,
  Floor,
  BIM2BEM_int_slab_floor,
  L3_Zone_47,
  ,
  Surface,
  L2_Zone_30_Ceiling_3,
  NoSun,
  NoWind,
  ,
  4,
  27.9985,
  10.5800,
  13.0000,
  27.9985,
  10.5710,
  13.0000,
  11.5044,
  10.5710,
  13.0000,
  11.5044,
  10.5800,
  13.0000;

BuildingSurface:Detailed,
  L3_Zone_47_Floor_4,
  Floor,
  BIM2BEM_int_slab_floor,
  L3_Zone_47,
  ,
  Surface,
  L2_Zone_30_Ceiling_4,
  NoSun,
  NoWind,
  ,
  4,
  27.9985,
  10.9710,
  13.0000,
  27.9985,
  10.5800,
  13.0000,
  11.5137,
  10.5800,
  13.0000,
  11.5137,
  10.9710,
  13.0000;

BuildingSurface:Detailed,
  L3_Zone_47_Floor_5,
  Floor,
  BIM2BEM_int_slab_floor,
  L3_Zone_47,
  ,
  Surface,
  L2_Zone_40_Ceiling_1,
  NoSun,
  NoWind,
  ,
  4,
  30.5034,
  10.9710,
  13.0000,
  30.5034,
  8.6720,
  13.0000,
  28.0995,
  8.6720,
  13.0000,
  28.0995,
  10.9710,
  13.0000;

BuildingSurface:Detailed,
  L3_Zone_47_Floor_6,
  Floor,
  Interior Floor,
  L3_Zone_47,
  ,
  Adiabatic,
  ,
  NoSun,
  NoWind,
  ,
  4,
  13.9034,
  5.0738,
  13.0000,
  13.9034,
  5.0720,
  13.0000,
  7.5068,
  5.0720,
  13.0000,
  7.5068,
  5.0738,
  13.0000;

BuildingSurface:Detailed,
  L3_Zone_47_Floor_7,
  Floor,
  Interior Floor,
  L3_Zone_47,
  ,
  Adiabatic,
  ,
  NoSun,
  NoWind,
  ,
  4,
  11.5137,
  10.9710,
  13.0000,
  11.5137,
  10.5800,
  13.0000,
  11.5044,
  10.5800,
  13.0000,
  11.5044,
  10.9710,
  13.0000;

BuildingSurface:Detailed,
  L3_Zone_47_Floor_8,
  Floor,
  Interior Floor,
  L3_Zone_47,
  ,
  Adiabatic,
  ,
  NoSun,
  NoWind,
  ,
  4,
  28.0995,
  10.9710,
  13.0000,
  28.0995,
  8.6720,
  13.0000,
  27.9985,
  8.6720,
  13.0000,
  27.9985,
  10.9710,
  13.0000;

BuildingSurface:Detailed,
  L3_Zone_47_Ceiling_1,
  Ceiling,
  BIM2BEM_int_slab_ceiling,
  L3_Zone_47,
  ,
  Surface,
  L4_Zone_58_Floor_2,
  NoSun,
  NoWind,
  ,
  4,
  11.5044,
  10.9710,
  16.8500,
  11.5044,
  10.6920,
  16.8500,
  13.8963,
  10.6920,
  16.8500,
  13.8963,
  10.9710,
  16.8500;

BuildingSurface:Detailed,
  L3_Zone_47_Ceiling_2,
  Ceiling,
  BIM2BEM_int_slab_ceiling,
  L3_Zone_47,
  ,
  Surface,
  L4_Zone_60_Floor_1,
  NoSun,
  NoWind,
  ,
  4,
  13.9973,
  10.9710,
  16.8500,
  13.9973,
  8.6720,
  16.8500,
  21.0010,
  8.6720,
  16.8500,
  21.0010,
  10.9710,
  16.8500;

BuildingSurface:Detailed,
  L3_Zone_47_Roof_1,
  Roof,
  BIM2BEM_nonres_roof,
  L3_Zone_47,
  ,
  Outdoors,
  ,
  SunExposed,
  WindExposed,
  ,
  4,
  7.5068,
  8.6720,
  16.8500,
  7.5068,
  5.0720,
  16.8500,
  13.9034,
  5.0720,
  16.8500,
  13.9034,
  8.6720,
  16.8500;

BuildingSurface:Detailed,
  L3_Zone_47_Roof_2,
  Roof,
  BIM2BEM_nonres_roof,
  L3_Zone_47,
  ,
  Outdoors,
  ,
  SunExposed,
  WindExposed,
  ,
  4,
  7.5068,
  10.5710,
  16.8500,
  7.5068,
  8.6720,
  16.8500,
  13.9973,
  8.6720,
  16.8500,
  13.9973,
  10.5710,
  16.8500;

BuildingSurface:Detailed,
  L3_Zone_47_Roof_3,
  Roof,
  BIM2BEM_nonres_roof,
  L3_Zone_47,
  ,
  Outdoors,
  ,
  SunExposed,
  WindExposed,
  ,
  4,
  11.5044,
  10.6920,
  16.8500,
  11.5044,
  10.5710,
  16.8500,
  13.9973,
  10.5710,
  16.8500,
  13.9973,
  10.6920,
  16.8500;

BuildingSurface:Detailed,
  L3_Zone_47_Roof_4,
  Roof,
  Interior Ceiling,
  L3_Zone_47,
  ,
  Adiabatic,
  ,
  NoSun,
  NoWind,
  ,
  4,
  13.8963,
  10.9710,
  16.8500,
  13.8963,
  10.6920,
  16.8500,
  13.9973,
  10.6920,
  16.8500,
  13.9973,
  10.9710,
  16.8500;

BuildingSurface:Detailed,
  L3_Zone_47_Roof_5,
  Roof,
  BIM2BEM_nonres_roof,
  L3_Zone_47,
  ,
  Outdoors,
  ,
  SunExposed,
  WindExposed,
  ,
  4,
  21.0010,
  10.9710,
  16.8500,
  21.0010,
  8.6720,
  16.8500,
  30.5034,
  8.6720,
  16.8500,
  30.5034,
  10.9710,
  16.8500;

BuildingSurface:Detailed,
  L3_Zone_47_Wall_1,
  Wall,
  BIM2BEM_nonres_ext_wall,
  L3_Zone_47,
  ,
  Outdoors,
  ,
  SunExposed,
  WindExposed,
  ,
  4,
  7.5068,
  5.0720,
  16.8500,
  7.5068,
  5.0720,
  13.0000,
  13.9034,
  5.0720,
  13.0000,
  13.9034,
  5.0720,
  16.8500;

BuildingSurface:Detailed,
  L3_Zone_47_Wall_2,
  Wall,
  BIM2BEM_Interior_Wall,
  L3_Zone_47,
  ,
  Surface,
  L3_Zone_50_Wall_4,
  NoSun,
  NoWind,
  ,
  4,
  13.9034,
  5.0720,
  16.8500,
  13.9034,
  5.0720,
  13.0000,
  13.9034,
  8.5710,
  13.0000,
  13.9034,
  8.5710,
  16.8500;

BuildingSurface:Detailed,
  L3_Zone_47_Wall_3,
  Wall,
  BIM2BEM_Interior_Wall,
  L3_Zone_47,
  ,
  Adiabatic,
  ,
  NoSun,
  NoWind,
  ,
  4,
  13.9034,
  8.5710,
  16.8500,
  13.9034,
  8.5710,
  13.0000,
  13.9034,
  8.6720,
  13.0000,
  13.9034,
  8.6720,
  16.8500;

BuildingSurface:Detailed,
  L3_Zone_47_Wall_4,
  Wall,
  BIM2BEM_Interior_Wall,
  L3_Zone_47,
  ,
  Adiabatic,
  ,
  NoSun,
  NoWind,
  ,
  4,
  13.9034,
  8.6720,
  16.8500,
  13.9034,
  8.6720,
  13.0000,
  14.0044,
  8.6720,
  13.0000,
  14.0044,
  8.6720,
  16.8500;

BuildingSurface:Detailed,
  L3_Zone_47_Wall_5,
  Wall,
  BIM2BEM_Interior_Wall,
  L3_Zone_47,
  ,
  Surface,
  L3_Zone_50_Wall_3,
  NoSun,
  NoWind,
  ,
  4,
  14.0044,
  8.6720,
  16.8500,
  14.0044,
  8.6720,
  13.0000,
  21.0233,
  8.6720,
  13.0000,
  21.0233,
  8.6720,
  16.8500;

BuildingSurface:Detailed,
  L3_Zone_47_Wall_6,
  Wall,
  BIM2BEM_Interior_Wall,
  L3_Zone_47,
  ,
  Adiabatic,
  ,
  NoSun,
  NoWind,
  ,
  4,
  21.0233,
  8.6720,
  16.8500,
  21.0233,
  8.6720,
  13.0000,
  21.0738,
  8.6720,
  13.0000,
  21.0738,
  8.6720,
  16.8500;

BuildingSurface:Detailed,
  L3_Zone_47_Wall_7,
  Wall,
  BIM2BEM_Interior_Wall,
  L3_Zone_47,
  ,
  Adiabatic,
  ,
  NoSun,
  NoWind,
  ,
  4,
  21.0738,
  8.6720,
  16.8500,
  21.0738,
  8.6720,
  13.0000,
  21.1243,
  8.6720,
  13.0000,
  21.1243,
  8.6720,
  16.8500;

BuildingSurface:Detailed,
  L3_Zone_47_Wall_8,
  Wall,
  BIM2BEM_Interior_Wall,
  L3_Zone_47,
  ,
  Surface,
  L3_Zone_54_Wall_3,
  NoSun,
  NoWind,
  ,
  4,
  21.1243,
  8.6720,
  16.8500,
  21.1243,
  8.6720,
  13.0000,
  28.0034,
  8.6720,
  13.0000,
  28.0034,
  8.6720,
  16.8500;

BuildingSurface:Detailed,
  L3_Zone_47_Wall_9,
  Wall,
  BIM2BEM_Interior_Wall,
  L3_Zone_47,
  ,
  Adiabatic,
  ,
  NoSun,
  NoWind,
  ,
  4,
  28.0034,
  8.6720,
  16.8500,
  28.0034,
  8.6720,
  13.0000,
  28.0539,
  8.6720,
  13.0000,
  28.0539,
  8.6720,
  16.8500;

BuildingSurface:Detailed,
  L3_Zone_47_Wall_10,
  Wall,
  BIM2BEM_Interior_Wall,
  L3_Zone_47,
  ,
  Adiabatic,
  ,
  NoSun,
  NoWind,
  ,
  4,
  28.0539,
  8.6720,
  16.8500,
  28.0539,
  8.6720,
  13.0000,
  28.1044,
  8.6720,
  13.0000,
  28.1044,
  8.6720,
  16.8500;

BuildingSurface:Detailed,
  L3_Zone_47_Wall_11,
  Wall,
  BIM2BEM_Interior_Wall,
  L3_Zone_47,
  ,
  Surface,
  L3_Zone_55_Wall_2,
  NoSun,
  NoWind,
  ,
  4,
  28.1044,
  8.6720,
  16.8500,
  28.1044,
  8.6720,
  13.0000,
  30.5034,
  8.6720,
  13.0000,
  30.5034,
  8.6720,
  16.8500;

BuildingSurface:Detailed,
  L3_Zone_47_Wall_12,
  Wall,
  BIM2BEM_Interior_Wall,
  L3_Zone_47,
  ,
  Surface,
  L3_Zone_56_Wall_3,
  NoSun,
  NoWind,
  ,
  4,
  30.5034,
  8.6720,
  16.8500,
  30.5034,
  8.6720,
  13.0000,
  30.5034,
  10.9710,
  13.0000,
  30.5034,
  10.9710,
  16.8500;

BuildingSurface:Detailed,
  L3_Zone_47_Wall_13,
  Wall,
  BIM2BEM_Interior_Wall,
  L3_Zone_47,
  ,
  Adiabatic,
  ,
  NoSun,
  NoWind,
  ,
  4,
  28.1044,
  10.9710,
  16.8500,
  28.1044,
  10.9710,
  13.0000,
  28.0539,
  10.9710,
  13.0000,
  28.0539,
  10.9710,
  16.8500;

BuildingSurface:Detailed,
  L3_Zone_47_Wall_14,
  Wall,
  BIM2BEM_Interior_Wall,
  L3_Zone_47,
  ,
  Surface,
  L3_Zone_57_Wall_4,
  NoSun,
  NoWind,
  ,
  4,
  30.5034,
  10.9710,
  16.8500,
  30.5034,
  10.9710,
  13.0000,
  28.1044,
  10.9710,
  13.0000,
  28.1044,
  10.9710,
  16.8500;

BuildingSurface:Detailed,
  L3_Zone_47_Wall_15,
  Wall,
  BIM2BEM_Interior_Wall,
  L3_Zone_47,
  ,
  Adiabatic,
  ,
  NoSun,
  NoWind,
  ,
  4,
  21.1394,
  10.9710,
  16.8500,
  21.1394,
  10.9710,
  13.0000,
  21.0889,
  10.9710,
  13.0000,
  21.0889,
  10.9710,
  16.8500;

BuildingSurface:Detailed,
  L3_Zone_47_Wall_16,
  Wall,
  BIM2BEM_Interior_Wall,
  L3_Zone_47,
  ,
  Surface,
  L3_Zone_53_Wall_3,
  NoSun,
  NoWind,
  ,
  4,
  28.0034,
  10.9710,
  16.8500,
  28.0034,
  10.9710,
  13.0000,
  21.1394,
  10.9710,
  13.0000,
  21.1394,
  10.9710,
  16.8500;

BuildingSurface:Detailed,
  L3_Zone_47_Wall_17,
  Wall,
  BIM2BEM_Interior_Wall,
  L3_Zone_47,
  ,
  Adiabatic,
  ,
  NoSun,
  NoWind,
  ,
  4,
  28.0539,
  10.9710,
  16.8500,
  28.0539,
  10.9710,
  13.0000,
  28.0034,
  10.9710,
  13.0000,
  28.0034,
  10.9710,
  16.8500;

BuildingSurface:Detailed,
  L3_Zone_47_Wall_18,
  Wall,
  BIM2BEM_Interior_Wall,
  L3_Zone_47,
  ,
  Adiabatic,
  ,
  NoSun,
  NoWind,
  ,
  4,
  19.4544,
  10.9710,
  16.8500,
  19.4544,
  10.9710,
  13.0000,
  19.4039,
  10.9710,
  13.0000,
  19.4039,
  10.9710,
  16.8500;

BuildingSurface:Detailed,
  L3_Zone_47_Wall_19,
  Wall,
  BIM2BEM_Interior_Wall,
  L3_Zone_47,
  ,
  Surface,
  L3_Zone_52_Wall_3,
  NoSun,
  NoWind,
  ,
  4,
  21.0384,
  10.9710,
  16.8500,
  21.0384,
  10.9710,
  13.0000,
  19.4544,
  10.9710,
  13.0000,
  19.4544,
  10.9710,
  16.8500;

BuildingSurface:Detailed,
  L3_Zone_47_Wall_20,
  Wall,
  BIM2BEM_Interior_Wall,
  L3_Zone_47,
  ,
  Adiabatic,
  ,
  NoSun,
  NoWind,
  ,
  4,
  21.0889,
  10.9710,
  16.8500,
  21.0889,
  10.9710,
  13.0000,
  21.0384,
  10.9710,
  13.0000,
  21.0384,
  10.9710,
  16.8500;

BuildingSurface:Detailed,
  L3_Zone_47_Wall_21,
  Wall,
  BIM2BEM_Interior_Wall,
  L3_Zone_47,
  ,
  Adiabatic,
  ,
  NoSun,
  NoWind,
  ,
  4,
  17.5544,
  10.9710,
  16.8500,
  17.5544,
  10.9710,
  13.0000,
  17.5039,
  10.9710,
  13.0000,
  17.5039,
  10.9710,
  16.8500;

BuildingSurface:Detailed,
  L3_Zone_47_Wall_22,
  Wall,
  BIM2BEM_Interior_Wall,
  L3_Zone_47,
  ,
  Surface,
  L3_Zone_51_Wall_3,
  NoSun,
  NoWind,
  ,
  4,
  19.3534,
  10.9710,
  16.8500,
  19.3534,
  10.9710,
  13.0000,
  17.5544,
  10.9710,
  13.0000,
  17.5544,
  10.9710,
  16.8500;

BuildingSurface:Detailed,
  L3_Zone_47_Wall_23,
  Wall,
  BIM2BEM_Interior_Wall,
  L3_Zone_47,
  ,
  Adiabatic,
  ,
  NoSun,
  NoWind,
  ,
  4,
  19.4039,
  10.9710,
  16.8500,
  19.4039,
  10.9710,
  13.0000,
  19.3534,
  10.9710,
  13.0000,
  19.3534,
  10.9710,
  16.8500;

BuildingSurface:Detailed,
  L3_Zone_47_Wall_24,
  Wall,
  BIM2BEM_Interior_Wall,
  L3_Zone_47,
  ,
  Adiabatic,
  ,
  NoSun,
  NoWind,
  ,
  4,
  14.0044,
  10.9710,
  16.8500,
  14.0044,
  10.9710,
  13.0000,
  13.9539,
  10.9710,
  13.0000,
  13.9539,
  10.9710,
  16.8500;

BuildingSurface:Detailed,
  L3_Zone_47_Wall_25,
  Wall,
  BIM2BEM_Interior_Wall,
  L3_Zone_47,
  ,
  Surface,
  L3_Zone_49_Wall_3,
  NoSun,
  NoWind,
  ,
  4,
  17.4534,
  10.9710,
  16.8500,
  17.4534,
  10.9710,
  13.0000,
  14.0044,
  10.9710,
  13.0000,
  14.0044,
  10.9710,
  16.8500;

BuildingSurface:Detailed,
  L3_Zone_47_Wall_26,
  Wall,
  BIM2BEM_Interior_Wall,
  L3_Zone_47,
  ,
  Adiabatic,
  ,
  NoSun,
  NoWind,
  ,
  4,
  17.5039,
  10.9710,
  16.8500,
  17.5039,
  10.9710,
  13.0000,
  17.4534,
  10.9710,
  13.0000,
  17.4534,
  10.9710,
  16.8500;

BuildingSurface:Detailed,
  L3_Zone_47_Wall_27,
  Wall,
  BIM2BEM_Interior_Wall,
  L3_Zone_47,
  ,
  Surface,
  L3_Zone_46_Wall_3,
  NoSun,
  NoWind,
  ,
  4,
  13.9034,
  10.9710,
  16.8500,
  13.9034,
  10.9710,
  13.0000,
  11.5044,
  10.9710,
  13.0000,
  11.5044,
  10.9710,
  16.8500;

BuildingSurface:Detailed,
  L3_Zone_47_Wall_28,
  Wall,
  BIM2BEM_Interior_Wall,
  L3_Zone_47,
  ,
  Adiabatic,
  ,
  NoSun,
  NoWind,
  ,
  4,
  13.9539,
  10.9710,
  16.8500,
  13.9539,
  10.9710,
  13.0000,
  13.9034,
  10.9710,
  13.0000,
  13.9034,
  10.9710,
  16.8500;

BuildingSurface:Detailed,
  L3_Zone_47_Wall_29,
  Wall,
  BIM2BEM_Interior_Wall,
  L3_Zone_47,
  ,
  Adiabatic,
  ,
  NoSun,
  NoWind,
  ,
  4,
  11.5044,
  10.6720,
  16.8500,
  11.5044,
  10.6720,
  13.0000,
  11.5044,
  10.5710,
  13.0000,
  11.5044,
  10.5710,
  16.8500;

BuildingSurface:Detailed,
  L3_Zone_47_Wall_30,
  Wall,
  BIM2BEM_Interior_Wall,
  L3_Zone_47,
  ,
  Surface,
  L3_Zone_45_Wall_4,
  NoSun,
  NoWind,
  ,
  4,
  11.5044,
  10.9710,
  16.8500,
  11.5044,
  10.9710,
  13.0000,
  11.5044,
  10.6720,
  13.0000,
  11.5044,
  10.6720,
  16.8500;

BuildingSurface:Detailed,
  L3_Zone_47_Wall_31,
  Wall,
  BIM2BEM_Interior_Wall,
  L3_Zone_47,
  ,
  Surface,
  L3_Zone_45_Wall_3,
  NoSun,
  NoWind,
  ,
  4,
  11.4034,
  10.5710,
  16.8500,
  11.4034,
  10.5710,
  13.0000,
  7.5068,
  10.5710,
  13.0000,
  7.5068,
  10.5710,
  16.8500;

BuildingSurface:Detailed,
  L3_Zone_47_Wall_32,
  Wall,
  BIM2BEM_Interior_Wall,
  L3_Zone_47,
  ,
  Adiabatic,
  ,
  NoSun,
  NoWind,
  ,
  4,
  11.5044,
  10.5710,
  16.8500,
  11.5044,
  10.5710,
  13.0000,
  11.4034,
  10.5710,
  13.0000,
  11.4034,
  10.5710,
  16.8500;

BuildingSurface:Detailed,
  L3_Zone_47_Wall_33,
  Wall,
  BIM2BEM_nonres_ext_wall,
  L3_Zone_47,
  ,
  Outdoors,
  ,
  SunExposed,
  WindExposed,
  ,
  4,
  7.5068,
  10.5710,
  16.8500,
  7.5068,
  10.5710,
  13.0000,
  7.5068,
  5.0720,
  13.0000,
  7.5068,
  5.0720,
  16.8500;

BuildingSurface:Detailed,
  L3_Zone_49_Floor_1,
  Floor,
  BIM2BEM_int_slab_floor,
  L3_Zone_49,
  ,
  Surface,
  L2_Zone_32_Ceiling_2,
  NoSun,
  NoWind,
  ,
  4,
  14.5127,
  14.5728,
  13.0000,
  14.5127,
  11.0810,
  13.0000,
  14.0044,
  11.0810,
  13.0000,
  14.0044,
  14.5728,
  13.0000;

BuildingSurface:Detailed,
  L3_Zone_49_Floor_2,
  Floor,
  BIM2BEM_int_slab_floor,
  L3_Zone_49,
  ,
  Surface,
  L2_Zone_34_Ceiling_1,
  NoSun,
  NoWind,
  ,
  4,
  17.4534,
  14.5728,
  13.0000,
  17.4534,
  11.0810,
  13.0000,
  14.6137,
  11.0810,
  13.0000,
  14.6137,
  14.5728,
  13.0000;

BuildingSurface:Detailed,
  L3_Zone_49_Floor_3,
  Floor,
  Interior Floor,
  L3_Zone_49,
  ,
  Adiabatic,
  ,
  NoSun,
  NoWind,
  ,
  4,
  17.4534,
  11.0810,
  13.0000,
  17.4534,
  11.0720,
  13.0000,
  14.0044,
  11.0720,
  13.0000,
  14.0044,
  11.0810,
  13.0000;

BuildingSurface:Detailed,
  L3_Zone_49_Floor_4,
  Floor,
  Interior Floor,
  L3_Zone_49,
  ,
  Adiabatic,
  ,
  NoSun,
  NoWind,
  ,
  4,
  14.6137,
  14.5728,
  13.0000,
  14.6137,
  11.0810,
  13.0000,
  14.5127,
  11.0810,
  13.0000,
  14.5127,
  14.5728,
  13.0000;

BuildingSurface:Detailed,
  L3_Zone_49_Ceiling_1,
  Ceiling,
  BIM2BEM_int_slab_ceiling,
  L3_Zone_49,
  ,
  Surface,
  L4_Zone_60_Floor_2,
  NoSun,
  NoWind,
  ,
  4,
  14.0044,
  14.5728,
  16.8500,
  14.0044,
  11.0720,
  16.8500,
  17.4534,
  11.0720,
  16.8500,
  17.4534,
  14.5728,
  16.8500;

BuildingSurface:Detailed,
  L3_Zone_49_Wall_1,
  Wall,
  BIM2BEM_nonres_ext_wall,
  L3_Zone_49,
  ,
  Outdoors,
  ,
  SunExposed,
  WindExposed,
  ,
  4,
  17.4534,
  14.5728,
  16.8500,
  17.4534,
  14.5728,
  13.0000,
  14.0044,
  14.5728,
  13.0000,
  14.0044,
  14.5728,
  16.8500;

BuildingSurface:Detailed,
  L3_Zone_49_Wall_2,
  Wall,
  BIM2BEM_Interior_Wall,
  L3_Zone_49,
  ,
  Surface,
  L3_Zone_46_Wall_4,
  NoSun,
  NoWind,
  ,
  4,
  14.0044,
  14.5728,
  16.8500,
  14.0044,
  14.5728,
  13.0000,
  14.0044,
  11.0720,
  13.0000,
  14.0044,
  11.0720,
  16.8500;

BuildingSurface:Detailed,
  L3_Zone_49_Wall_3,
  Wall,
  BIM2BEM_Interior_Wall,
  L3_Zone_49,
  ,
  Surface,
  L3_Zone_47_Wall_25,
  NoSun,
  NoWind,
  ,
  4,
  14.0044,
  11.0720,
  16.8500,
  14.0044,
  11.0720,
  13.0000,
  17.4534,
  11.0720,
  13.0000,
  17.4534,
  11.0720,
  16.8500;

BuildingSurface:Detailed,
  L3_Zone_49_Wall_4,
  Wall,
  BIM2BEM_Interior_Wall,
  L3_Zone_49,
  ,
  Surface,
  L3_Zone_51_Wall_2,
  NoSun,
  NoWind,
  ,
  4,
  17.4534,
  11.0720,
  16.8500,
  17.4534,
  11.0720,
  13.0000,
  17.4534,
  14.5728,
  13.0000,
  17.4534,
  14.5728,
  16.8500;

BuildingSurface:Detailed,
  L3_Zone_50_Floor_1,
  Floor,
  BIM2BEM_int_slab_floor,
  L3_Zone_50,
  ,
  Surface,
  L2_Zone_42_Ceiling_1,
  NoSun,
  NoWind,
  ,
  4,
  21.0058,
  8.5710,
  13.0000,
  21.0058,
  5.0738,
  13.0000,
  14.0044,
  5.0738,
  13.0000,
  14.0044,
  8.5710,
  13.0000;

BuildingSurface:Detailed,
  L3_Zone_50_Floor_2,
  Floor,
  Interior Floor,
  L3_Zone_50,
  ,
  Adiabatic,
  ,
  NoSun,
  NoWind,
  ,
  4,
  21.0233,
  5.0738,
  13.0000,
  21.0233,
  5.0720,
  13.0000,
  14.0044,
  5.0720,
  13.0000,
  14.0044,
  5.0738,
  13.0000;

BuildingSurface:Detailed,
  L3_Zone_50_Floor_3,
  Floor,
  Interior Floor,
  L3_Zone_50,
  ,
  Adiabatic,
  ,
  NoSun,
  NoWind,
  ,
  4,
  21.0233,
  8.5710,
  13.0000,
  21.0233,
  5.0738,
  13.0000,
  21.0058,
  5.0738,
  13.0000,
  21.0058,
  8.5710,
  13.0000;

BuildingSurface:Detailed,
  L3_Zone_50_Ceiling_1,
  Ceiling,
  BIM2BEM_int_slab_ceiling,
  L3_Zone_50,
  ,
  Surface,
  L4_Zone_61_Floor_1,
  NoSun,
  NoWind,
  ,
  4,
  14.0044,
  8.5660,
  16.8500,
  14.0044,
  5.0720,
  16.8500,
  21.0010,
  5.0720,
  16.8500,
  21.0010,
  8.5660,
  16.8500;

BuildingSurface:Detailed,
  L3_Zone_50_Roof_1,
  Roof,
  Interior Ceiling,
  L3_Zone_50,
  ,
  Adiabatic,
  ,
  NoSun,
  NoWind,
  ,
  4,
  14.0044,
  8.5710,
  16.8500,
  14.0044,
  8.5660,
  16.8500,
  21.0233,
  8.5660,
  16.8500,
  21.0233,
  8.5710,
  16.8500;

BuildingSurface:Detailed,
  L3_Zone_50_Roof_2,
  Roof,
  Interior Ceiling,
  L3_Zone_50,
  ,
  Adiabatic,
  ,
  NoSun,
  NoWind,
  ,
  4,
  21.0010,
  8.5660,
  16.8500,
  21.0010,
  5.0720,
  16.8500,
  21.0233,
  5.0720,
  16.8500,
  21.0233,
  8.5660,
  16.8500;

BuildingSurface:Detailed,
  L3_Zone_50_Wall_1,
  Wall,
  BIM2BEM_nonres_ext_wall,
  L3_Zone_50,
  ,
  Outdoors,
  ,
  SunExposed,
  WindExposed,
  ,
  4,
  14.0044,
  5.0720,
  16.8500,
  14.0044,
  5.0720,
  13.0000,
  21.0233,
  5.0720,
  13.0000,
  21.0233,
  5.0720,
  16.8500;

BuildingSurface:Detailed,
  L3_Zone_50_Wall_2,
  Wall,
  BIM2BEM_Interior_Wall,
  L3_Zone_50,
  ,
  Surface,
  L3_Zone_54_Wall_4,
  NoSun,
  NoWind,
  ,
  4,
  21.0233,
  5.0720,
  16.8500,
  21.0233,
  5.0720,
  13.0000,
  21.0233,
  8.5710,
  13.0000,
  21.0233,
  8.5710,
  16.8500;

BuildingSurface:Detailed,
  L3_Zone_50_Wall_3,
  Wall,
  BIM2BEM_Interior_Wall,
  L3_Zone_50,
  ,
  Surface,
  L3_Zone_47_Wall_5,
  NoSun,
  NoWind,
  ,
  4,
  21.0233,
  8.5710,
  16.8500,
  21.0233,
  8.5710,
  13.0000,
  14.0044,
  8.5710,
  13.0000,
  14.0044,
  8.5710,
  16.8500;

BuildingSurface:Detailed,
  L3_Zone_50_Wall_4,
  Wall,
  BIM2BEM_Interior_Wall,
  L3_Zone_50,
  ,
  Surface,
  L3_Zone_47_Wall_2,
  NoSun,
  NoWind,
  ,
  4,
  14.0044,
  8.5710,
  16.8500,
  14.0044,
  8.5710,
  13.0000,
  14.0044,
  5.0720,
  13.0000,
  14.0044,
  5.0720,
  16.8500;

BuildingSurface:Detailed,
  L3_Zone_51_Floor_1,
  Floor,
  BIM2BEM_int_slab_floor,
  L3_Zone_51,
  ,
  Surface,
  L2_Zone_34_Ceiling_2,
  NoSun,
  NoWind,
  ,
  4,
  17.7627,
  14.5728,
  13.0000,
  17.7627,
  11.0810,
  13.0000,
  17.5544,
  11.0810,
  13.0000,
  17.5544,
  14.5728,
  13.0000;

BuildingSurface:Detailed,
  L3_Zone_51_Floor_2,
  Floor,
  BIM2BEM_int_slab_floor,
  L3_Zone_51,
  ,
  Surface,
  L2_Zone_35_Ceiling_1,
  NoSun,
  NoWind,
  ,
  4,
  19.3534,
  14.5728,
  13.0000,
  19.3534,
  11.0810,
  13.0000,
  17.8637,
  11.0810,
  13.0000,
  17.8637,
  14.5728,
  13.0000;

BuildingSurface:Detailed,
  L3_Zone_51_Floor_3,
  Floor,
  Interior Floor,
  L3_Zone_51,
  ,
  Adiabatic,
  ,
  NoSun,
  NoWind,
  ,
  4,
  19.3534,
  11.0810,
  13.0000,
  19.3534,
  11.0720,
  13.0000,
  17.5544,
  11.0720,
  13.0000,
  17.5544,
  11.0810,
  13.0000;

BuildingSurface:Detailed,
  L3_Zone_51_Floor_4,
  Floor,
  Interior Floor,
  L3_Zone_51,
  ,
  Adiabatic,
  ,
  NoSun,
  NoWind,
  ,
  4,
  17.8637,
  14.5728,
  13.0000,
  17.8637,
  11.0810,
  13.0000,
  17.7627,
  11.0810,
  13.0000,
  17.7627,
  14.5728,
  13.0000;

BuildingSurface:Detailed,
  L3_Zone_51_Ceiling_1,
  Ceiling,
  BIM2BEM_int_slab_ceiling,
  L3_Zone_51,
  ,
  Surface,
  L4_Zone_60_Floor_3,
  NoSun,
  NoWind,
  ,
  4,
  17.5544,
  14.5728,
  16.8500,
  17.5544,
  11.0720,
  16.8500,
  19.3534,
  11.0720,
  16.8500,
  19.3534,
  14.5728,
  16.8500;

BuildingSurface:Detailed,
  L3_Zone_51_Wall_1,
  Wall,
  BIM2BEM_nonres_ext_wall,
  L3_Zone_51,
  ,
  Outdoors,
  ,
  SunExposed,
  WindExposed,
  ,
  4,
  19.3534,
  14.5728,
  16.8500,
  19.3534,
  14.5728,
  13.0000,
  17.5544,
  14.5728,
  13.0000,
  17.5544,
  14.5728,
  16.8500;

BuildingSurface:Detailed,
  L3_Zone_51_Wall_2,
  Wall,
  BIM2BEM_Interior_Wall,
  L3_Zone_51,
  ,
  Surface,
  L3_Zone_49_Wall_4,
  NoSun,
  NoWind,
  ,
  4,
  17.5544,
  14.5728,
  16.8500,
  17.5544,
  14.5728,
  13.0000,
  17.5544,
  11.0720,
  13.0000,
  17.5544,
  11.0720,
  16.8500;

BuildingSurface:Detailed,
  L3_Zone_51_Wall_3,
  Wall,
  BIM2BEM_Interior_Wall,
  L3_Zone_51,
  ,
  Surface,
  L3_Zone_47_Wall_22,
  NoSun,
  NoWind,
  ,
  4,
  17.5544,
  11.0720,
  16.8500,
  17.5544,
  11.0720,
  13.0000,
  19.3534,
  11.0720,
  13.0000,
  19.3534,
  11.0720,
  16.8500;

BuildingSurface:Detailed,
  L3_Zone_51_Wall_4,
  Wall,
  BIM2BEM_Interior_Wall,
  L3_Zone_51,
  ,
  Surface,
  L3_Zone_52_Wall_2,
  NoSun,
  NoWind,
  ,
  4,
  19.3534,
  11.0720,
  16.8500,
  19.3534,
  11.0720,
  13.0000,
  19.3534,
  14.5728,
  13.0000,
  19.3534,
  14.5728,
  16.8500;

BuildingSurface:Detailed,
  L3_Zone_52_Floor_1,
  Floor,
  BIM2BEM_int_slab_floor,
  L3_Zone_52,
  ,
  Surface,
  L2_Zone_35_Ceiling_2,
  NoSun,
  NoWind,
  ,
  4,
  21.0132,
  14.5728,
  13.0000,
  21.0132,
  11.0810,
  13.0000,
  19.4544,
  11.0810,
  13.0000,
  19.4544,
  14.5728,
  13.0000;

BuildingSurface:Detailed,
  L3_Zone_52_Floor_2,
  Floor,
  Interior Floor,
  L3_Zone_52,
  ,
  Adiabatic,
  ,
  NoSun,
  NoWind,
  ,
  4,
  21.0384,
  11.0810,
  13.0000,
  21.0384,
  11.0720,
  13.0000,
  19.4544,
  11.0720,
  13.0000,
  19.4544,
  11.0810,
  13.0000;

BuildingSurface:Detailed,
  L3_Zone_52_Floor_3,
  Floor,
  Interior Floor,
  L3_Zone_52,
  ,
  Adiabatic,
  ,
  NoSun,
  NoWind,
  ,
  4,
  21.0384,
  14.5728,
  13.0000,
  21.0384,
  11.0810,
  13.0000,
  21.0132,
  11.0810,
  13.0000,
  21.0132,
  14.5728,
  13.0000;

BuildingSurface:Detailed,
  L3_Zone_52_Ceiling_1,
  Ceiling,
  BIM2BEM_int_slab_ceiling,
  L3_Zone_52,
  ,
  Surface,
  L4_Zone_60_Floor_4,
  NoSun,
  NoWind,
  ,
  4,
  19.4544,
  14.5728,
  16.8500,
  19.4544,
  11.0720,
  16.8500,
  21.0010,
  11.0720,
  16.8500,
  21.0010,
  14.5728,
  16.8500;

BuildingSurface:Detailed,
  L3_Zone_52_Roof_1,
  Roof,
  Interior Ceiling,
  L3_Zone_52,
  ,
  Adiabatic,
  ,
  NoSun,
  NoWind,
  ,
  4,
  21.0010,
  14.5728,
  16.8500,
  21.0010,
  11.0720,
  16.8500,
  21.0384,
  11.0720,
  16.8500,
  21.0384,
  14.5728,
  16.8500;

BuildingSurface:Detailed,
  L3_Zone_52_Wall_1,
  Wall,
  BIM2BEM_nonres_ext_wall,
  L3_Zone_52,
  ,
  Outdoors,
  ,
  SunExposed,
  WindExposed,
  ,
  4,
  21.0384,
  14.5728,
  16.8500,
  21.0384,
  14.5728,
  13.0000,
  19.4544,
  14.5728,
  13.0000,
  19.4544,
  14.5728,
  16.8500;

BuildingSurface:Detailed,
  L3_Zone_52_Wall_2,
  Wall,
  BIM2BEM_Interior_Wall,
  L3_Zone_52,
  ,
  Surface,
  L3_Zone_51_Wall_4,
  NoSun,
  NoWind,
  ,
  4,
  19.4544,
  14.5728,
  16.8500,
  19.4544,
  14.5728,
  13.0000,
  19.4544,
  11.0720,
  13.0000,
  19.4544,
  11.0720,
  16.8500;

BuildingSurface:Detailed,
  L3_Zone_52_Wall_3,
  Wall,
  BIM2BEM_Interior_Wall,
  L3_Zone_52,
  ,
  Surface,
  L3_Zone_47_Wall_19,
  NoSun,
  NoWind,
  ,
  4,
  19.4544,
  11.0720,
  16.8500,
  19.4544,
  11.0720,
  13.0000,
  21.0384,
  11.0720,
  13.0000,
  21.0384,
  11.0720,
  16.8500;

BuildingSurface:Detailed,
  L3_Zone_52_Wall_4,
  Wall,
  BIM2BEM_Interior_Wall,
  L3_Zone_52,
  ,
  Surface,
  L3_Zone_53_Wall_2,
  NoSun,
  NoWind,
  ,
  4,
  21.0384,
  11.0720,
  16.8500,
  21.0384,
  11.0720,
  13.0000,
  21.0384,
  14.5728,
  13.0000,
  21.0384,
  14.5728,
  16.8500;

BuildingSurface:Detailed,
  L3_Zone_53_Floor_1,
  Floor,
  BIM2BEM_int_slab_floor,
  L3_Zone_53,
  ,
  Surface,
  L2_Zone_36_Ceiling_1,
  NoSun,
  NoWind,
  ,
  4,
  27.9985,
  14.5728,
  13.0000,
  27.9985,
  11.0810,
  13.0000,
  21.1394,
  11.0810,
  13.0000,
  21.1394,
  14.5728,
  13.0000;

BuildingSurface:Detailed,
  L3_Zone_53_Floor_2,
  Floor,
  Interior Floor,
  L3_Zone_53,
  ,
  Adiabatic,
  ,
  NoSun,
  NoWind,
  ,
  4,
  28.0034,
  11.0810,
  13.0000,
  28.0034,
  11.0720,
  13.0000,
  21.1394,
  11.0720,
  13.0000,
  21.1394,
  11.0810,
  13.0000;

BuildingSurface:Detailed,
  L3_Zone_53_Floor_3,
  Floor,
  Interior Floor,
  L3_Zone_53,
  ,
  Adiabatic,
  ,
  NoSun,
  NoWind,
  ,
  4,
  28.0034,
  14.5728,
  13.0000,
  28.0034,
  11.0810,
  13.0000,
  27.9985,
  11.0810,
  13.0000,
  27.9985,
  14.5728,
  13.0000;

BuildingSurface:Detailed,
  L3_Zone_53_Roof_1,
  Roof,
  BIM2BEM_nonres_roof,
  L3_Zone_53,
  ,
  Outdoors,
  ,
  SunExposed,
  WindExposed,
  ,
  4,
  21.1394,
  14.5728,
  16.8500,
  21.1394,
  11.0720,
  16.8500,
  28.0034,
  11.0720,
  16.8500,
  28.0034,
  14.5728,
  16.8500;

BuildingSurface:Detailed,
  L3_Zone_53_Wall_1,
  Wall,
  BIM2BEM_nonres_ext_wall,
  L3_Zone_53,
  ,
  Outdoors,
  ,
  SunExposed,
  WindExposed,
  ,
  4,
  28.0034,
  14.5728,
  16.8500,
  28.0034,
  14.5728,
  13.0000,
  21.1394,
  14.5728,
  13.0000,
  21.1394,
  14.5728,
  16.8500;

BuildingSurface:Detailed,
  L3_Zone_53_Wall_2,
  Wall,
  BIM2BEM_Interior_Wall,
  L3_Zone_53,
  ,
  Surface,
  L3_Zone_52_Wall_4,
  NoSun,
  NoWind,
  ,
  4,
  21.1394,
  14.5728,
  16.8500,
  21.1394,
  14.5728,
  13.0000,
  21.1394,
  11.0720,
  13.0000,
  21.1394,
  11.0720,
  16.8500;

BuildingSurface:Detailed,
  L3_Zone_53_Wall_3,
  Wall,
  BIM2BEM_Interior_Wall,
  L3_Zone_53,
  ,
  Surface,
  L3_Zone_47_Wall_16,
  NoSun,
  NoWind,
  ,
  4,
  21.1394,
  11.0720,
  16.8500,
  21.1394,
  11.0720,
  13.0000,
  28.0034,
  11.0720,
  13.0000,
  28.0034,
  11.0720,
  16.8500;

BuildingSurface:Detailed,
  L3_Zone_53_Wall_4,
  Wall,
  BIM2BEM_Interior_Wall,
  L3_Zone_53,
  ,
  Surface,
  L3_Zone_57_Wall_3,
  NoSun,
  NoWind,
  ,
  4,
  28.0034,
  11.0720,
  16.8500,
  28.0034,
  11.0720,
  13.0000,
  28.0034,
  14.5728,
  13.0000,
  28.0034,
  14.5728,
  16.8500;

BuildingSurface:Detailed,
  L3_Zone_54_Floor_1,
  Floor,
  BIM2BEM_int_slab_floor,
  L3_Zone_54,
  ,
  Surface,
  L2_Zone_26_Ceiling_1,
  NoSun,
  NoWind,
  ,
  4,
  27.9985,
  8.5710,
  13.0000,
  27.9985,
  5.0738,
  13.0000,
  21.1243,
  5.0738,
  13.0000,
  21.1243,
  8.5710,
  13.0000;

BuildingSurface:Detailed,
  L3_Zone_54_Floor_2,
  Floor,
  Interior Floor,
  L3_Zone_54,
  ,
  Adiabatic,
  ,
  NoSun,
  NoWind,
  ,
  4,
  28.0034,
  5.0738,
  13.0000,
  28.0034,
  5.0720,
  13.0000,
  21.1243,
  5.0720,
  13.0000,
  21.1243,
  5.0738,
  13.0000;

BuildingSurface:Detailed,
  L3_Zone_54_Floor_3,
  Floor,
  Interior Floor,
  L3_Zone_54,
  ,
  Adiabatic,
  ,
  NoSun,
  NoWind,
  ,
  4,
  28.0034,
  8.5710,
  13.0000,
  28.0034,
  5.0738,
  13.0000,
  27.9985,
  5.0738,
  13.0000,
  27.9985,
  8.5710,
  13.0000;

BuildingSurface:Detailed,
  L3_Zone_54_Roof_1,
  Roof,
  BIM2BEM_nonres_roof,
  L3_Zone_54,
  ,
  Outdoors,
  ,
  SunExposed,
  WindExposed,
  ,
  4,
  21.1243,
  8.5710,
  16.8500,
  21.1243,
  5.0720,
  16.8500,
  28.0034,
  5.0720,
  16.8500,
  28.0034,
  8.5710,
  16.8500;

BuildingSurface:Detailed,
  L3_Zone_54_Wall_1,
  Wall,
  BIM2BEM_nonres_ext_wall,
  L3_Zone_54,
  ,
  Outdoors,
  ,
  SunExposed,
  WindExposed,
  ,
  4,
  21.1243,
  5.0720,
  16.8500,
  21.1243,
  5.0720,
  13.0000,
  28.0034,
  5.0720,
  13.0000,
  28.0034,
  5.0720,
  16.8500;

BuildingSurface:Detailed,
  L3_Zone_54_Wall_2,
  Wall,
  BIM2BEM_Interior_Wall,
  L3_Zone_54,
  ,
  Surface,
  L3_Zone_55_Wall_5,
  NoSun,
  NoWind,
  ,
  4,
  28.0034,
  5.0720,
  16.8500,
  28.0034,
  5.0720,
  13.0000,
  28.0034,
  8.5710,
  13.0000,
  28.0034,
  8.5710,
  16.8500;

BuildingSurface:Detailed,
  L3_Zone_54_Wall_3,
  Wall,
  BIM2BEM_Interior_Wall,
  L3_Zone_54,
  ,
  Surface,
  L3_Zone_47_Wall_8,
  NoSun,
  NoWind,
  ,
  4,
  28.0034,
  8.5710,
  16.8500,
  28.0034,
  8.5710,
  13.0000,
  21.1243,
  8.5710,
  13.0000,
  21.1243,
  8.5710,
  16.8500;

BuildingSurface:Detailed,
  L3_Zone_54_Wall_4,
  Wall,
  BIM2BEM_Interior_Wall,
  L3_Zone_54,
  ,
  Surface,
  L3_Zone_50_Wall_2,
  NoSun,
  NoWind,
  ,
  4,
  21.1243,
  8.5710,
  16.8500,
  21.1243,
  8.5710,
  13.0000,
  21.1243,
  5.0720,
  13.0000,
  21.1243,
  5.0720,
  16.8500;

BuildingSurface:Detailed,
  L3_Zone_55_Floor_1,
  Floor,
  BIM2BEM_int_slab_floor,
  L3_Zone_55,
  ,
  Surface,
  L2_Zone_40_Ceiling_2,
  NoSun,
  NoWind,
  ,
  4,
  33.0035,
  8.5710,
  13.0000,
  33.0035,
  5.0738,
  13.0000,
  28.1044,
  5.0738,
  13.0000,
  28.1044,
  8.5710,
  13.0000;

BuildingSurface:Detailed,
  L3_Zone_55_Floor_2,
  Floor,
  Interior Floor,
  L3_Zone_55,
  ,
  Adiabatic,
  ,
  NoSun,
  NoWind,
  ,
  4,
  34.5058,
  5.0738,
  13.0000,
  34.5058,
  5.0720,
  13.0000,
  28.1044,
  5.0720,
  13.0000,
  28.1044,
  5.0738,
  13.0000;

BuildingSurface:Detailed,
  L3_Zone_55_Floor_3,
  Floor,
  Exterior Floor,
  L3_Zone_55,
  ,
  Outdoors,
  ,
  SunExposed,
  WindExposed,
  ,
  4,
  34.5058,
  8.5710,
  13.0000,
  34.5058,
  5.0738,
  13.0000,
  33.0035,
  5.0738,
  13.0000,
  33.0035,
  8.5710,
  13.0000;

BuildingSurface:Detailed,
  L3_Zone_55_Roof_1,
  Roof,
  BIM2BEM_nonres_roof,
  L3_Zone_55,
  ,
  Outdoors,
  ,
  SunExposed,
  WindExposed,
  ,
  4,
  28.1044,
  8.5710,
  16.8500,
  28.1044,
  5.0720,
  16.8500,
  34.5058,
  5.0720,
  16.8500,
  34.5058,
  8.5710,
  16.8500;

BuildingSurface:Detailed,
  L3_Zone_55_Wall_1,
  Wall,
  BIM2BEM_nonres_ext_wall,
  L3_Zone_55,
  ,
  Outdoors,
  ,
  SunExposed,
  WindExposed,
  ,
  4,
  34.5058,
  5.0720,
  16.8500,
  34.5058,
  5.0720,
  13.0000,
  34.5058,
  8.5710,
  13.0000,
  34.5058,
  8.5710,
  16.8500;

BuildingSurface:Detailed,
  L3_Zone_55_Wall_2,
  Wall,
  BIM2BEM_Interior_Wall,
  L3_Zone_55,
  ,
  Surface,
  L3_Zone_47_Wall_11,
  NoSun,
  NoWind,
  ,
  4,
  30.5034,
  8.5710,
  16.8500,
  30.5034,
  8.5710,
  13.0000,
  28.1044,
  8.5710,
  13.0000,
  28.1044,
  8.5710,
  16.8500;

BuildingSurface:Detailed,
  L3_Zone_55_Wall_3,
  Wall,
  BIM2BEM_Interior_Wall,
  L3_Zone_55,
  ,
  Adiabatic,
  ,
  NoSun,
  NoWind,
  ,
  4,
  30.6044,
  8.5710,
  16.8500,
  30.6044,
  8.5710,
  13.0000,
  30.5034,
  8.5710,
  13.0000,
  30.5034,
  8.5710,
  16.8500;

BuildingSurface:Detailed,
  L3_Zone_55_Wall_4,
  Wall,
  BIM2BEM_Interior_Wall,
  L3_Zone_55,
  ,
  Surface,
  L3_Zone_56_Wall_4,
  NoSun,
  NoWind,
  ,
  4,
  34.5058,
  8.5710,
  16.8500,
  34.5058,
  8.5710,
  13.0000,
  30.6044,
  8.5710,
  13.0000,
  30.6044,
  8.5710,
  16.8500;

BuildingSurface:Detailed,
  L3_Zone_55_Wall_5,
  Wall,
  BIM2BEM_Interior_Wall,
  L3_Zone_55,
  ,
  Surface,
  L3_Zone_54_Wall_2,
  NoSun,
  NoWind,
  ,
  4,
  28.1044,
  8.5710,
  16.8500,
  28.1044,
  8.5710,
  13.0000,
  28.1044,
  5.0720,
  13.0000,
  28.1044,
  5.0720,
  16.8500;

BuildingSurface:Detailed,
  L3_Zone_55_Wall_6,
  Wall,
  BIM2BEM_nonres_ext_wall,
  L3_Zone_55,
  ,
  Outdoors,
  ,
  SunExposed,
  WindExposed,
  ,
  4,
  28.1044,
  5.0720,
  16.8500,
  28.1044,
  5.0720,
  13.0000,
  34.5058,
  5.0720,
  13.0000,
  34.5058,
  5.0720,
  16.8500;

BuildingSurface:Detailed,
  L3_Zone_56_Floor_1,
  Floor,
  BIM2BEM_int_slab_floor,
  L3_Zone_56,
  ,
  Surface,
  L2_Zone_40_Ceiling_4,
  NoSun,
  NoWind,
  ,
  4,
  33.0035,
  10.9710,
  13.0000,
  33.0035,
  8.6720,
  13.0000,
  30.6044,
  8.6720,
  13.0000,
  30.6044,
  10.9710,
  13.0000;

BuildingSurface:Detailed,
  L3_Zone_56_Floor_2,
  Floor,
  Exterior Floor,
  L3_Zone_56,
  ,
  Outdoors,
  ,
  SunExposed,
  WindExposed,
  ,
  4,
  34.5058,
  10.9710,
  13.0000,
  34.5058,
  8.6720,
  13.0000,
  33.0035,
  8.6720,
  13.0000,
  33.0035,
  10.9710,
  13.0000;

BuildingSurface:Detailed,
  L3_Zone_56_Roof_1,
  Roof,
  BIM2BEM_nonres_roof,
  L3_Zone_56,
  ,
  Outdoors,
  ,
  SunExposed,
  WindExposed,
  ,
  4,
  30.6044,
  10.9710,
  16.8500,
  30.6044,
  8.6720,
  16.8500,
  34.5058,
  8.6720,
  16.8500,
  34.5058,
  10.9710,
  16.8500;

BuildingSurface:Detailed,
  L3_Zone_56_Wall_1,
  Wall,
  BIM2BEM_nonres_ext_wall,
  L3_Zone_56,
  ,
  Outdoors,
  ,
  SunExposed,
  WindExposed,
  ,
  4,
  34.5058,
  8.6720,
  16.8500,
  34.5058,
  8.6720,
  13.0000,
  34.5058,
  10.9710,
  13.0000,
  34.5058,
  10.9710,
  16.8500;

BuildingSurface:Detailed,
  L3_Zone_56_Wall_2,
  Wall,
  BIM2BEM_Interior_Wall,
  L3_Zone_56,
  ,
  Surface,
  L3_Zone_57_Wall_6,
  NoSun,
  NoWind,
  ,
  4,
  34.5058,
  10.9710,
  16.8500,
  34.5058,
  10.9710,
  13.0000,
  30.6044,
  10.9710,
  13.0000,
  30.6044,
  10.9710,
  16.8500;

BuildingSurface:Detailed,
  L3_Zone_56_Wall_3,
  Wall,
  BIM2BEM_Interior_Wall,
  L3_Zone_56,
  ,
  Surface,
  L3_Zone_47_Wall_12,
  NoSun,
  NoWind,
  ,
  4,
  30.6044,
  10.9710,
  16.8500,
  30.6044,
  10.9710,
  13.0000,
  30.6044,
  8.6720,
  13.0000,
  30.6044,
  8.6720,
  16.8500;

BuildingSurface:Detailed,
  L3_Zone_56_Wall_4,
  Wall,
  BIM2BEM_Interior_Wall,
  L3_Zone_56,
  ,
  Surface,
  L3_Zone_55_Wall_4,
  NoSun,
  NoWind,
  ,
  4,
  30.6044,
  8.6720,
  16.8500,
  30.6044,
  8.6720,
  13.0000,
  34.5058,
  8.6720,
  13.0000,
  34.5058,
  8.6720,
  16.8500;

BuildingSurface:Detailed,
  L3_Zone_57_Floor_1,
  Floor,
  BIM2BEM_int_slab_floor,
  L3_Zone_57,
  ,
  Surface,
  L2_Zone_40_Ceiling_3,
  NoSun,
  NoWind,
  ,
  4,
  33.0035,
  12.4649,
  13.0000,
  33.0035,
  11.0720,
  13.0000,
  28.1044,
  11.0720,
  13.0000,
  28.1044,
  12.4649,
  13.0000;

BuildingSurface:Detailed,
  L3_Zone_57_Floor_2,
  Floor,
  BIM2BEM_int_slab_floor,
  L3_Zone_57,
  ,
  Surface,
  L2_Zone_37_Ceiling_1,
  NoSun,
  NoWind,
  ,
  4,
  30.8035,
  14.5728,
  13.0000,
  30.8035,
  12.5659,
  13.0000,
  28.1044,
  12.5659,
  13.0000,
  28.1044,
  14.5728,
  13.0000;

BuildingSurface:Detailed,
  L3_Zone_57_Floor_3,
  Floor,
  BIM2BEM_int_slab_floor,
  L3_Zone_57,
  ,
  Surface,
  L2_Zone_38_Ceiling_1,
  NoSun,
  NoWind,
  ,
  4,
  32.6035,
  14.5728,
  13.0000,
  32.6035,
  12.5659,
  13.0000,
  30.9045,
  12.5659,
  13.0000,
  30.9045,
  14.5728,
  13.0000;

BuildingSurface:Detailed,
  L3_Zone_57_Floor_4,
  Floor,
  BIM2BEM_int_slab_floor,
  L3_Zone_57,
  ,
  Surface,
  L2_Zone_39_Ceiling_1,
  NoSun,
  NoWind,
  ,
  4,
  34.5058,
  14.5728,
  13.0000,
  34.5058,
  12.5659,
  13.0000,
  32.7045,
  12.5659,
  13.0000,
  32.7045,
  14.5728,
  13.0000;

BuildingSurface:Detailed,
  L3_Zone_57_Floor_5,
  Floor,
  Interior Floor,
  L3_Zone_57,
  ,
  Adiabatic,
  ,
  NoSun,
  NoWind,
  ,
  4,
  34.5058,
  12.5659,
  13.0000,
  34.5058,
  12.4649,
  13.0000,
  28.1044,
  12.4649,
  13.0000,
  28.1044,
  12.5659,
  13.0000;

BuildingSurface:Detailed,
  L3_Zone_57_Floor_6,
  Floor,
  Interior Floor,
  L3_Zone_57,
  ,
  Adiabatic,
  ,
  NoSun,
  NoWind,
  ,
  4,
  30.9045,
  14.5728,
  13.0000,
  30.9045,
  12.5659,
  13.0000,
  30.8035,
  12.5659,
  13.0000,
  30.8035,
  14.5728,
  13.0000;

BuildingSurface:Detailed,
  L3_Zone_57_Floor_7,
  Floor,
  Interior Floor,
  L3_Zone_57,
  ,
  Adiabatic,
  ,
  NoSun,
  NoWind,
  ,
  4,
  32.7045,
  14.5728,
  13.0000,
  32.7045,
  12.5659,
  13.0000,
  32.6035,
  12.5659,
  13.0000,
  32.6035,
  14.5728,
  13.0000;

BuildingSurface:Detailed,
  L3_Zone_57_Floor_8,
  Floor,
  Exterior Floor,
  L3_Zone_57,
  ,
  Outdoors,
  ,
  SunExposed,
  WindExposed,
  ,
  4,
  34.5058,
  12.4649,
  13.0000,
  34.5058,
  11.0720,
  13.0000,
  33.0035,
  11.0720,
  13.0000,
  33.0035,
  12.4649,
  13.0000;

BuildingSurface:Detailed,
  L3_Zone_57_Roof_1,
  Roof,
  BIM2BEM_nonres_roof,
  L3_Zone_57,
  ,
  Outdoors,
  ,
  SunExposed,
  WindExposed,
  ,
  4,
  28.1044,
  14.5728,
  16.8500,
  28.1044,
  11.0720,
  16.8500,
  34.5058,
  11.0720,
  16.8500,
  34.5058,
  14.5728,
  16.8500;

BuildingSurface:Detailed,
  L3_Zone_57_Wall_1,
  Wall,
  BIM2BEM_nonres_ext_wall,
  L3_Zone_57,
  ,
  Outdoors,
  ,
  SunExposed,
  WindExposed,
  ,
  4,
  34.5058,
  11.0720,
  16.8500,
  34.5058,
  11.0720,
  13.0000,
  34.5058,
  14.5728,
  13.0000,
  34.5058,
  14.5728,
  16.8500;

BuildingSurface:Detailed,
  L3_Zone_57_Wall_2,
  Wall,
  BIM2BEM_nonres_ext_wall,
  L3_Zone_57,
  ,
  Outdoors,
  ,
  SunExposed,
  WindExposed,
  ,
  4,
  34.5058,
  14.5728,
  16.8500,
  34.5058,
  14.5728,
  13.0000,
  28.1044,
  14.5728,
  13.0000,
  28.1044,
  14.5728,
  16.8500;

BuildingSurface:Detailed,
  L3_Zone_57_Wall_3,
  Wall,
  BIM2BEM_Interior_Wall,
  L3_Zone_57,
  ,
  Surface,
  L3_Zone_53_Wall_4,
  NoSun,
  NoWind,
  ,
  4,
  28.1044,
  14.5728,
  16.8500,
  28.1044,
  14.5728,
  13.0000,
  28.1044,
  11.0720,
  13.0000,
  28.1044,
  11.0720,
  16.8500;

BuildingSurface:Detailed,
  L3_Zone_57_Wall_4,
  Wall,
  BIM2BEM_Interior_Wall,
  L3_Zone_57,
  ,
  Surface,
  L3_Zone_47_Wall_14,
  NoSun,
  NoWind,
  ,
  4,
  28.1044,
  11.0720,
  16.8500,
  28.1044,
  11.0720,
  13.0000,
  30.5034,
  11.0720,
  13.0000,
  30.5034,
  11.0720,
  16.8500;

BuildingSurface:Detailed,
  L3_Zone_57_Wall_5,
  Wall,
  BIM2BEM_Interior_Wall,
  L3_Zone_57,
  ,
  Adiabatic,
  ,
  NoSun,
  NoWind,
  ,
  4,
  30.5034,
  11.0720,
  16.8500,
  30.5034,
  11.0720,
  13.0000,
  30.6044,
  11.0720,
  13.0000,
  30.6044,
  11.0720,
  16.8500;

BuildingSurface:Detailed,
  L3_Zone_57_Wall_6,
  Wall,
  BIM2BEM_Interior_Wall,
  L3_Zone_57,
  ,
  Surface,
  L3_Zone_56_Wall_2,
  NoSun,
  NoWind,
  ,
  4,
  30.6044,
  11.0720,
  16.8500,
  30.6044,
  11.0720,
  13.0000,
  34.5058,
  11.0720,
  13.0000,
  34.5058,
  11.0720,
  16.8500;

BuildingSurface:Detailed,
  L4_Zone_58_Floor_1,
  Floor,
  BIM2BEM_int_slab_floor,
  L4_Zone_58,
  ,
  Surface,
  L3_Zone_45_Ceiling_1,
  NoSun,
  NoWind,
  ,
  4,
  11.4034,
  14.5728,
  17.0000,
  11.4034,
  10.6920,
  17.0000,
  7.5068,
  10.6920,
  17.0000,
  7.5068,
  14.5728,
  17.0000;

BuildingSurface:Detailed,
  L4_Zone_58_Floor_2,
  Floor,
  BIM2BEM_int_slab_floor,
  L4_Zone_58,
  ,
  Surface,
  L3_Zone_47_Ceiling_1,
  NoSun,
  NoWind,
  ,
  4,
  13.8963,
  10.9710,
  17.0000,
  13.8963,
  10.6920,
  17.0000,
  11.5044,
  10.6920,
  17.0000,
  11.5044,
  10.9710,
  17.0000;

BuildingSurface:Detailed,
  L4_Zone_58_Floor_3,
  Floor,
  BIM2BEM_int_slab_floor,
  L4_Zone_58,
  ,
  Surface,
  L3_Zone_46_Ceiling_1,
  NoSun,
  NoWind,
  ,
  4,
  13.8963,
  14.5728,
  17.0000,
  13.8963,
  11.0720,
  17.0000,
  11.5044,
  11.0720,
  17.0000,
  11.5044,
  14.5728,
  17.0000;

BuildingSurface:Detailed,
  L4_Zone_58_Floor_4,
  Floor,
  Interior Floor,
  L4_Zone_58,
  ,
  Adiabatic,
  ,
  NoSun,
  NoWind,
  ,
  4,
  11.5044,
  10.9710,
  17.0000,
  11.5044,
  10.6920,
  17.0000,
  11.4034,
  10.6920,
  17.0000,
  11.4034,
  10.9710,
  17.0000;

BuildingSurface:Detailed,
  L4_Zone_58_Floor_5,
  Floor,
  Interior Floor,
  L4_Zone_58,
  ,
  Adiabatic,
  ,
  NoSun,
  NoWind,
  ,
  4,
  11.5044,
  14.5728,
  17.0000,
  11.5044,
  11.0720,
  17.0000,
  11.4034,
  11.0720,
  17.0000,
  11.4034,
  14.5728,
  17.0000;

BuildingSurface:Detailed,
  L4_Zone_58_Floor_6,
  Floor,
  Interior Floor,
  L4_Zone_58,
  ,
  Adiabatic,
  ,
  NoSun,
  NoWind,
  ,
  4,
  13.8963,
  11.0720,
  17.0000,
  13.8963,
  10.9710,
  17.0000,
  11.4034,
  10.9710,
  17.0000,
  11.4034,
  11.0720,
  17.0000;

BuildingSurface:Detailed,
  L4_Zone_58_Roof_1,
  Roof,
  BIM2BEM_nonres_roof,
  L4_Zone_58,
  ,
  Outdoors,
  ,
  SunExposed,
  WindExposed,
  ,
  4,
  7.5068,
  14.5728,
  22.1500,
  7.5068,
  10.6920,
  22.1500,
  13.8963,
  10.6920,
  22.1500,
  13.8963,
  14.5728,
  22.1500;

BuildingSurface:Detailed,
  L4_Zone_58_Wall_1,
  Wall,
  BIM2BEM_nonres_ext_wall,
  L4_Zone_58,
  ,
  Outdoors,
  ,
  SunExposed,
  WindExposed,
  ,
  4,
  13.8963,
  14.5728,
  22.1500,
  13.8963,
  14.5728,
  17.0000,
  7.5068,
  14.5728,
  17.0000,
  7.5068,
  14.5728,
  22.1500;

BuildingSurface:Detailed,
  L4_Zone_58_Wall_2,
  Wall,
  BIM2BEM_nonres_ext_wall,
  L4_Zone_58,
  ,
  Outdoors,
  ,
  SunExposed,
  WindExposed,
  ,
  4,
  7.5068,
  14.5728,
  22.1500,
  7.5068,
  14.5728,
  17.0000,
  7.5068,
  10.6920,
  17.0000,
  7.5068,
  10.6920,
  22.1500;

BuildingSurface:Detailed,
  L4_Zone_58_Wall_3,
  Wall,
  BIM2BEM_nonres_ext_wall,
  L4_Zone_58,
  ,
  Outdoors,
  ,
  SunExposed,
  WindExposed,
  ,
  4,
  7.5068,
  10.6920,
  22.1500,
  7.5068,
  10.6920,
  17.0000,
  13.8963,
  10.6920,
  17.0000,
  13.8963,
  10.6920,
  22.1500;

BuildingSurface:Detailed,
  L4_Zone_58_Wall_4,
  Wall,
  BIM2BEM_Interior_Wall,
  L4_Zone_58,
  ,
  Surface,
  L4_Zone_60_Wall_3,
  NoSun,
  NoWind,
  ,
  4,
  13.8963,
  10.6920,
  22.1500,
  13.8963,
  10.6920,
  17.0000,
  13.8963,
  14.5728,
  17.0000,
  13.8963,
  14.5728,
  22.1500;

BuildingSurface:Detailed,
  L4_Zone_60_Floor_1,
  Floor,
  BIM2BEM_int_slab_floor,
  L4_Zone_60,
  ,
  Surface,
  L3_Zone_47_Ceiling_2,
  NoSun,
  NoWind,
  ,
  4,
  21.0010,
  10.9710,
  17.0000,
  21.0010,
  8.6720,
  17.0000,
  13.9973,
  8.6720,
  17.0000,
  13.9973,
  10.9710,
  17.0000;

BuildingSurface:Detailed,
  L4_Zone_60_Floor_2,
  Floor,
  BIM2BEM_int_slab_floor,
  L4_Zone_60,
  ,
  Surface,
  L3_Zone_49_Ceiling_1,
  NoSun,
  NoWind,
  ,
  4,
  17.4534,
  14.5728,
  17.0000,
  17.4534,
  11.0720,
  17.0000,
  14.0044,
  11.0720,
  17.0000,
  14.0044,
  14.5728,
  17.0000;

BuildingSurface:Detailed,
  L4_Zone_60_Floor_3,
  Floor,
  BIM2BEM_int_slab_floor,
  L4_Zone_60,
  ,
  Surface,
  L3_Zone_51_Ceiling_1,
  NoSun,
  NoWind,
  ,
  4,
  19.3534,
  14.5728,
  17.0000,
  19.3534,
  11.0720,
  17.0000,
  17.5544,
  11.0720,
  17.0000,
  17.5544,
  14.5728,
  17.0000;

BuildingSurface:Detailed,
  L4_Zone_60_Floor_4,
  Floor,
  BIM2BEM_int_slab_floor,
  L4_Zone_60,
  ,
  Surface,
  L3_Zone_52_Ceiling_1,
  NoSun,
  NoWind,
  ,
  4,
  21.0010,
  14.5728,
  17.0000,
  21.0010,
  11.0720,
  17.0000,
  19.4544,
  11.0720,
  17.0000,
  19.4544,
  14.5728,
  17.0000;

BuildingSurface:Detailed,
  L4_Zone_60_Floor_5,
  Floor,
  Interior Floor,
  L4_Zone_60,
  ,
  Adiabatic,
  ,
  NoSun,
  NoWind,
  ,
  4,
  14.0044,
  14.5728,
  17.0000,
  14.0044,
  11.0720,
  17.0000,
  13.9973,
  11.0720,
  17.0000,
  13.9973,
  14.5728,
  17.0000;

BuildingSurface:Detailed,
  L4_Zone_60_Floor_6,
  Floor,
  Interior Floor,
  L4_Zone_60,
  ,
  Adiabatic,
  ,
  NoSun,
  NoWind,
  ,
  4,
  21.0010,
  8.6720,
  17.0000,
  21.0010,
  8.6670,
  17.0000,
  13.9973,
  8.6670,
  17.0000,
  13.9973,
  8.6720,
  17.0000;

BuildingSurface:Detailed,
  L4_Zone_60_Floor_7,
  Floor,
  Interior Floor,
  L4_Zone_60,
  ,
  Adiabatic,
  ,
  NoSun,
  NoWind,
  ,
  4,
  21.0010,
  11.0720,
  17.0000,
  21.0010,
  10.9710,
  17.0000,
  13.9973,
  10.9710,
  17.0000,
  13.9973,
  11.0720,
  17.0000;

BuildingSurface:Detailed,
  L4_Zone_60_Floor_8,
  Floor,
  Interior Floor,
  L4_Zone_60,
  ,
  Adiabatic,
  ,
  NoSun,
  NoWind,
  ,
  4,
  17.5544,
  14.5728,
  17.0000,
  17.5544,
  11.0720,
  17.0000,
  17.4534,
  11.0720,
  17.0000,
  17.4534,
  14.5728,
  17.0000;

BuildingSurface:Detailed,
  L4_Zone_60_Floor_9,
  Floor,
  Interior Floor,
  L4_Zone_60,
  ,
  Adiabatic,
  ,
  NoSun,
  NoWind,
  ,
  4,
  19.4544,
  14.5728,
  17.0000,
  19.4544,
  11.0720,
  17.0000,
  19.3534,
  11.0720,
  17.0000,
  19.3534,
  14.5728,
  17.0000;

BuildingSurface:Detailed,
  L4_Zone_60_Roof_1,
  Roof,
  BIM2BEM_nonres_roof,
  L4_Zone_60,
  ,
  Outdoors,
  ,
  SunExposed,
  WindExposed,
  ,
  4,
  13.9973,
  14.5728,
  22.1500,
  13.9973,
  8.6670,
  22.1500,
  21.0010,
  8.6670,
  22.1500,
  21.0010,
  14.5728,
  22.1500;

BuildingSurface:Detailed,
  L4_Zone_60_Wall_1,
  Wall,
  BIM2BEM_nonres_ext_wall,
  L4_Zone_60,
  ,
  Outdoors,
  ,
  SunExposed,
  WindExposed,
  ,
  4,
  21.0010,
  14.5728,
  22.1500,
  21.0010,
  14.5728,
  17.0000,
  13.9973,
  14.5728,
  17.0000,
  13.9973,
  14.5728,
  22.1500;

BuildingSurface:Detailed,
  L4_Zone_60_Wall_2,
  Wall,
  BIM2BEM_Interior_Wall,
  L4_Zone_60,
  ,
  Adiabatic,
  ,
  NoSun,
  NoWind,
  ,
  4,
  13.9973,
  10.6920,
  22.1500,
  13.9973,
  10.6920,
  17.0000,
  13.9973,
  8.6670,
  17.0000,
  13.9973,
  8.6670,
  22.1500;

BuildingSurface:Detailed,
  L4_Zone_60_Wall_3,
  Wall,
  BIM2BEM_Interior_Wall,
  L4_Zone_60,
  ,
  Surface,
  L4_Zone_58_Wall_4,
  NoSun,
  NoWind,
  ,
  4,
  13.9973,
  14.5728,
  22.1500,
  13.9973,
  14.5728,
  17.0000,
  13.9973,
  10.6920,
  17.0000,
  13.9973,
  10.6920,
  22.1500;

BuildingSurface:Detailed,
  L4_Zone_60_Wall_4,
  Wall,
  BIM2BEM_Interior_Wall,
  L4_Zone_60,
  ,
  Surface,
  L4_Zone_61_Wall_3,
  NoSun,
  NoWind,
  ,
  4,
  13.9973,
  8.6670,
  22.1500,
  13.9973,
  8.6670,
  17.0000,
  21.0010,
  8.6670,
  17.0000,
  21.0010,
  8.6670,
  22.1500;

BuildingSurface:Detailed,
  L4_Zone_60_Wall_5,
  Wall,
  BIM2BEM_nonres_ext_wall,
  L4_Zone_60,
  ,
  Outdoors,
  ,
  SunExposed,
  WindExposed,
  ,
  4,
  21.0010,
  8.6670,
  22.1500,
  21.0010,
  8.6670,
  17.0000,
  21.0010,
  14.5728,
  17.0000,
  21.0010,
  14.5728,
  22.1500;

BuildingSurface:Detailed,
  L4_Zone_61_Floor_1,
  Floor,
  BIM2BEM_int_slab_floor,
  L4_Zone_61,
  ,
  Surface,
  L3_Zone_50_Ceiling_1,
  NoSun,
  NoWind,
  ,
  4,
  21.0010,
  8.5660,
  17.0000,
  21.0010,
  5.0720,
  17.0000,
  14.0044,
  5.0720,
  17.0000,
  14.0044,
  8.5660,
  17.0000;

BuildingSurface:Detailed,
  L4_Zone_61_Floor_2,
  Floor,
  Interior Floor,
  L4_Zone_61,
  ,
  Adiabatic,
  ,
  NoSun,
  NoWind,
  ,
  4,
  14.0044,
  8.5660,
  17.0000,
  14.0044,
  5.0720,
  17.0000,
  13.9973,
  5.0720,
  17.0000,
  13.9973,
  8.5660,
  17.0000;

BuildingSurface:Detailed,
  L4_Zone_61_Roof_1,
  Roof,
  BIM2BEM_nonres_roof,
  L4_Zone_61,
  ,
  Outdoors,
  ,
  SunExposed,
  WindExposed,
  ,
  4,
  13.9973,
  8.5660,
  22.1500,
  13.9973,
  5.0720,
  22.1500,
  21.0010,
  5.0720,
  22.1500,
  21.0010,
  8.5660,
  22.1500;

BuildingSurface:Detailed,
  L4_Zone_61_Wall_1,
  Wall,
  BIM2BEM_nonres_ext_wall,
  L4_Zone_61,
  ,
  Outdoors,
  ,
  SunExposed,
  WindExposed,
  ,
  4,
  13.9973,
  5.0720,
  22.1500,
  13.9973,
  5.0720,
  17.0000,
  21.0010,
  5.0720,
  17.0000,
  21.0010,
  5.0720,
  22.1500;

BuildingSurface:Detailed,
  L4_Zone_61_Wall_2,
  Wall,
  BIM2BEM_nonres_ext_wall,
  L4_Zone_61,
  ,
  Outdoors,
  ,
  SunExposed,
  WindExposed,
  ,
  4,
  21.0010,
  5.0720,
  22.1500,
  21.0010,
  5.0720,
  17.0000,
  21.0010,
  8.5660,
  17.0000,
  21.0010,
  8.5660,
  22.1500;

BuildingSurface:Detailed,
  L4_Zone_61_Wall_3,
  Wall,
  BIM2BEM_Interior_Wall,
  L4_Zone_61,
  ,
  Surface,
  L4_Zone_60_Wall_4,
  NoSun,
  NoWind,
  ,
  4,
  21.0010,
  8.5660,
  22.1500,
  21.0010,
  8.5660,
  17.0000,
  13.9973,
  8.5660,
  17.0000,
  13.9973,
  8.5660,
  22.1500;

BuildingSurface:Detailed,
  L4_Zone_61_Wall_4,
  Wall,
  BIM2BEM_nonres_ext_wall,
  L4_Zone_61,
  ,
  Outdoors,
  ,
  SunExposed,
  WindExposed,
  ,
  4,
  13.9973,
  8.5660,
  22.1500,
  13.9973,
  8.5660,
  17.0000,
  13.9973,
  5.0720,
  17.0000,
  13.9973,
  5.0720,
  22.1500;

BuildingSurface:Detailed,
  L2_Zone_26_Floor_1,
  Floor,
  BIM2BEM_int_slab_floor,
  L2_Zone_26,
  ,
  Surface,
  L1_Zone_17_Ceiling_2,
  NoSun,
  NoWind,
  ,
  4,
  27.9808,
  8.5710,
  7.0000,
  27.9808,
  5.0738,
  7.0000,
  21.1068,
  5.0738,
  7.0000,
  21.1068,
  8.5710,
  7.0000;

BuildingSurface:Detailed,
  L2_Zone_26_Floor_2,
  Floor,
  Interior Floor,
  L2_Zone_26,
  ,
  Adiabatic,
  ,
  NoSun,
  NoWind,
  ,
  4,
  27.9985,
  8.5710,
  7.0000,
  27.9985,
  5.0738,
  7.0000,
  27.9808,
  5.0738,
  7.0000,
  27.9808,
  8.5710,
  7.0000;

BuildingSurface:Detailed,
  L2_Zone_26_Ceiling_1,
  Ceiling,
  BIM2BEM_int_slab_ceiling,
  L2_Zone_26,
  ,
  Surface,
  L3_Zone_54_Floor_1,
  NoSun,
  NoWind,
  ,
  4,
  21.1243,
  8.5710,
  12.8500,
  21.1243,
  5.0738,
  12.8500,
  27.9985,
  5.0738,
  12.8500,
  27.9985,
  8.5710,
  12.8500;

BuildingSurface:Detailed,
  L2_Zone_26_Roof_1,
  Roof,
  Interior Ceiling,
  L2_Zone_26,
  ,
  Adiabatic,
  ,
  NoSun,
  NoWind,
  ,
  4,
  21.1068,
  8.5710,
  12.8500,
  21.1068,
  5.0738,
  12.8500,
  21.1243,
  5.0738,
  12.8500,
  21.1243,
  8.5710,
  12.8500;

BuildingSurface:Detailed,
  L2_Zone_26_Wall_1,
  Wall,
  BIM2BEM_nonres_ext_wall,
  L2_Zone_26,
  ,
  Outdoors,
  ,
  SunExposed,
  WindExposed,
  ,
  4,
  21.1068,
  5.0738,
  12.8500,
  21.1068,
  5.0738,
  7.0000,
  27.9985,
  5.0738,
  7.0000,
  27.9985,
  5.0738,
  12.8500;

BuildingSurface:Detailed,
  L2_Zone_26_Wall_2,
  Wall,
  BIM2BEM_Interior_Wall,
  L2_Zone_26,
  ,
  Surface,
  L2_Zone_40_Wall_8,
  NoSun,
  NoWind,
  ,
  4,
  27.9985,
  5.0738,
  12.8500,
  27.9985,
  5.0738,
  7.0000,
  27.9985,
  8.5710,
  7.0000,
  27.9985,
  8.5710,
  12.8500;

BuildingSurface:Detailed,
  L2_Zone_26_Wall_3,
  Wall,
  BIM2BEM_Interior_Wall,
  L2_Zone_26,
  ,
  Surface,
  L2_Zone_30_Wall_8,
  NoSun,
  NoWind,
  ,
  4,
  27.9985,
  8.5710,
  12.8500,
  27.9985,
  8.5710,
  7.0000,
  21.1068,
  8.5710,
  7.0000,
  21.1068,
  8.5710,
  12.8500;

BuildingSurface:Detailed,
  L2_Zone_26_Wall_4,
  Wall,
  BIM2BEM_Interior_Wall,
  L2_Zone_26,
  ,
  Surface,
  L2_Zone_42_Wall_4,
  NoSun,
  NoWind,
  ,
  4,
  21.1068,
  8.5710,
  12.8500,
  21.1068,
  8.5710,
  7.0000,
  21.1068,
  5.0738,
  7.0000,
  21.1068,
  5.0738,
  12.8500;

FenestrationSurface:Detailed,
  L1_Zone_1_Window_1,
  Window,
  BIM2BEM_IFC_Window_Construction,
  L1_Zone_1_Wall_2,
  ,
  ,
  ,
  ,
  4,
  -34.4932,
  12.8728,
  4.9000,
  -34.4932,
  12.8728,
  0.9000,
  -34.4932,
  11.8728,
  0.9000,
  -34.4932,
  11.8728,
  4.9000;

FenestrationSurface:Detailed,
  L1_Zone_1_Window_2,
  Window,
  BIM2BEM_IFC_Window_Construction,
  L1_Zone_1_Wall_1,
  ,
  ,
  ,
  ,
  4,
  -32.2942,
  14.5728,
  4.9000,
  -32.2942,
  14.5728,
  0.9000,
  -33.2942,
  14.5728,
  0.9000,
  -33.2942,
  14.5728,
  4.9000;

FenestrationSurface:Detailed,
  L1_Zone_2_Window_1,
  Window,
  BIM2BEM_IFC_Window_Construction,
  L1_Zone_2_Wall_1,
  ,
  ,
  ,
  ,
  4,
  -34.4932,
  9.3538,
  4.9000,
  -34.4932,
  9.3538,
  0.9000,
  -34.4932,
  8.3538,
  0.9000,
  -34.4932,
  8.3538,
  4.9000;

FenestrationSurface:Detailed,
  L1_Zone_3_Window_1,
  Window,
  BIM2BEM_IFC_Window_Construction,
  L1_Zone_3_Wall_1,
  ,
  ,
  ,
  ,
  4,
  -29.1932,
  14.5728,
  4.9000,
  -29.1932,
  14.5728,
  0.9000,
  -30.1932,
  14.5728,
  0.9000,
  -30.1932,
  14.5728,
  4.9000;

FenestrationSurface:Detailed,
  L1_Zone_4_Window_1,
  Window,
  BIM2BEM_IFC_Window_Construction,
  L1_Zone_4_Wall_1,
  ,
  ,
  ,
  ,
  4,
  -34.4932,
  4.8737,
  4.9000,
  -34.4932,
  4.8737,
  0.9000,
  -34.4932,
  3.8737,
  0.9000,
  -34.4932,
  3.8737,
  4.9000;

FenestrationSurface:Detailed,
  L1_Zone_6_Window_1,
  Window,
  BIM2BEM_IFC_Window_Construction,
  L1_Zone_6_Wall_1,
  ,
  ,
  ,
  ,
  4,
  -34.4932,
  0.3732,
  5.0000,
  -34.4932,
  0.3732,
  1.0000,
  -34.4932,
  -0.6268,
  1.0000,
  -34.4932,
  -0.6268,
  5.0000;

FenestrationSurface:Detailed,
  L1_Zone_7_Window_1,
  Window,
  BIM2BEM_IFC_Window_Construction,
  L1_Zone_7_Wall_4,
  ,
  ,
  ,
  ,
  4,
  -34.4932,
  -3.1273,
  4.9000,
  -34.4932,
  -3.1273,
  0.9000,
  -34.4932,
  -4.1273,
  0.9000,
  -34.4932,
  -4.1273,
  4.9000;

FenestrationSurface:Detailed,
  L1_Zone_7_Window_2,
  Window,
  BIM2BEM_IFC_Window_Construction,
  L1_Zone_7_Wall_1,
  ,
  ,
  ,
  ,
  4,
  -33.2932,
  -5.8263,
  4.9000,
  -33.2932,
  -5.8263,
  0.9000,
  -32.2932,
  -5.8263,
  0.9000,
  -32.2932,
  -5.8263,
  4.9000;

FenestrationSurface:Detailed,
  L1_Zone_7_Window_3,
  Window,
  BIM2BEM_IFC_Window_Construction,
  L1_Zone_7_Wall_1,
  ,
  ,
  ,
  ,
  4,
  -30.2942,
  -5.8263,
  4.9000,
  -30.2942,
  -5.8263,
  0.9000,
  -29.2942,
  -5.8263,
  0.9000,
  -29.2942,
  -5.8263,
  4.9000;

FenestrationSurface:Detailed,
  L1_Zone_8_Door_1,
  Door,
  BIM2BEM_IFCIntent_Door,
  L1_Zone_8_Wall_18,
  ,
  ,
  ,
  ,
  4,
  7.4058,
  -0.5072,
  5.1000,
  7.4058,
  -0.5072,
  0.0000,
  7.4058,
  4.5928,
  0.0000,
  7.4058,
  4.5928,
  5.1000;

FenestrationSurface:Detailed,
  L1_Zone_8_Window_1,
  Window,
  BIM2BEM_IFC_Window_Construction,
  L1_Zone_8_Wall_15,
  ,
  ,
  ,
  ,
  4,
  -27.2532,
  -5.8263,
  4.9000,
  -27.2532,
  -5.8263,
  0.9000,
  -26.2532,
  -5.8263,
  0.9000,
  -26.2532,
  -5.8263,
  4.9000;

FenestrationSurface:Detailed,
  L1_Zone_8_Window_2,
  Window,
  BIM2BEM_IFC_Window_Construction,
  L1_Zone_8_Wall_15,
  ,
  ,
  ,
  ,
  4,
  -24.2532,
  -5.8263,
  4.9000,
  -24.2532,
  -5.8263,
  0.9000,
  -23.2532,
  -5.8263,
  0.9000,
  -23.2532,
  -5.8263,
  4.9000;

FenestrationSurface:Detailed,
  L1_Zone_8_Window_3,
  Window,
  BIM2BEM_IFC_Window_Construction,
  L1_Zone_8_Wall_15,
  ,
  ,
  ,
  ,
  4,
  -21.2532,
  -5.8263,
  4.9000,
  -21.2532,
  -5.8263,
  0.9000,
  -20.2532,
  -5.8263,
  0.9000,
  -20.2532,
  -5.8263,
  4.9000;

FenestrationSurface:Detailed,
  L1_Zone_8_Window_4,
  Window,
  BIM2BEM_IFC_Window_Construction,
  L1_Zone_8_Wall_15,
  ,
  ,
  ,
  ,
  4,
  -18.2532,
  -5.8263,
  4.9000,
  -18.2532,
  -5.8263,
  0.9000,
  -17.2532,
  -5.8263,
  0.9000,
  -17.2532,
  -5.8263,
  4.9000;

FenestrationSurface:Detailed,
  L1_Zone_8_Window_5,
  Window,
  BIM2BEM_IFC_Window_Construction,
  L1_Zone_8_Wall_15,
  ,
  ,
  ,
  ,
  4,
  -15.2532,
  -5.8263,
  4.9000,
  -15.2532,
  -5.8263,
  0.9000,
  -14.2532,
  -5.8263,
  0.9000,
  -14.2532,
  -5.8263,
  4.9000;

FenestrationSurface:Detailed,
  L1_Zone_8_Window_6,
  Window,
  BIM2BEM_IFC_Window_Construction,
  L1_Zone_8_Wall_15,
  ,
  ,
  ,
  ,
  4,
  -12.2532,
  -5.8263,
  4.9000,
  -12.2532,
  -5.8263,
  0.9000,
  -11.2532,
  -5.8263,
  0.9000,
  -11.2532,
  -5.8263,
  4.9000;

FenestrationSurface:Detailed,
  L1_Zone_8_Window_7,
  Window,
  BIM2BEM_IFC_Window_Construction,
  L1_Zone_8_Wall_15,
  ,
  ,
  ,
  ,
  4,
  -9.2532,
  -5.8263,
  4.9000,
  -9.2532,
  -5.8263,
  0.9000,
  -8.2532,
  -5.8263,
  0.9000,
  -8.2532,
  -5.8263,
  4.9000;

FenestrationSurface:Detailed,
  L1_Zone_8_Window_8,
  Window,
  BIM2BEM_IFC_Window_Construction,
  L1_Zone_8_Wall_15,
  ,
  ,
  ,
  ,
  4,
  -6.2532,
  -5.8263,
  4.9000,
  -6.2532,
  -5.8263,
  0.9000,
  -5.2532,
  -5.8263,
  0.9000,
  -5.2532,
  -5.8263,
  4.9000;

FenestrationSurface:Detailed,
  L1_Zone_8_Window_9,
  Window,
  BIM2BEM_IFC_Window_Construction,
  L1_Zone_8_Wall_15,
  ,
  ,
  ,
  ,
  4,
  -3.2532,
  -5.8263,
  4.9000,
  -3.2532,
  -5.8263,
  0.9000,
  -2.2532,
  -5.8263,
  0.9000,
  -2.2532,
  -5.8263,
  4.9000;

FenestrationSurface:Detailed,
  L1_Zone_8_Window_10,
  Window,
  BIM2BEM_IFC_Window_Construction,
  L1_Zone_8_Wall_15,
  ,
  ,
  ,
  ,
  4,
  -0.2942,
  -5.8263,
  4.9000,
  -0.2942,
  -5.8263,
  0.9000,
  0.7058,
  -5.8263,
  0.9000,
  0.7058,
  -5.8263,
  4.9000;

FenestrationSurface:Detailed,
  L1_Zone_8_Window_11,
  Window,
  BIM2BEM_IFC_Window_Construction,
  L1_Zone_8_Wall_17,
  ,
  ,
  ,
  ,
  4,
  2.7068,
  -0.8262,
  4.9000,
  2.7068,
  -0.8262,
  0.9000,
  3.7068,
  -0.8262,
  0.9000,
  3.7068,
  -0.8262,
  4.9000;

FenestrationSurface:Detailed,
  L1_Zone_8_Window_12,
  Window,
  BIM2BEM_IFC_Window_Construction,
  L1_Zone_8_Wall_17,
  ,
  ,
  ,
  ,
  4,
  5.8058,
  -0.8262,
  4.9000,
  5.8058,
  -0.8262,
  0.9000,
  6.8058,
  -0.8262,
  0.9000,
  6.8058,
  -0.8262,
  4.9000;

FenestrationSurface:Detailed,
  L1_Zone_8_Window_13,
  Window,
  BIM2BEM_IFC_Window_Construction,
  L1_Zone_8_Wall_1,
  ,
  ,
  ,
  ,
  4,
  -11.1944,
  14.5728,
  4.9000,
  -11.1944,
  14.5728,
  0.9000,
  -12.1944,
  14.5728,
  0.9000,
  -12.1944,
  14.5728,
  4.9000;

FenestrationSurface:Detailed,
  L1_Zone_8_Window_14,
  Window,
  BIM2BEM_IFC_Window_Construction,
  L1_Zone_8_Wall_1,
  ,
  ,
  ,
  ,
  4,
  -14.1944,
  14.5728,
  4.9000,
  -14.1944,
  14.5728,
  0.9000,
  -15.1944,
  14.5728,
  0.9000,
  -15.1944,
  14.5728,
  4.9000;

FenestrationSurface:Detailed,
  L1_Zone_8_Window_15,
  Window,
  BIM2BEM_IFC_Window_Construction,
  L1_Zone_8_Wall_1,
  ,
  ,
  ,
  ,
  4,
  -17.1944,
  14.5728,
  4.9000,
  -17.1944,
  14.5728,
  0.9000,
  -18.1944,
  14.5728,
  0.9000,
  -18.1944,
  14.5728,
  4.9000;

FenestrationSurface:Detailed,
  L1_Zone_8_Window_16,
  Window,
  BIM2BEM_IFC_Window_Construction,
  L1_Zone_8_Wall_1,
  ,
  ,
  ,
  ,
  4,
  -20.1944,
  14.5728,
  4.9000,
  -20.1944,
  14.5728,
  0.9000,
  -21.1944,
  14.5728,
  0.9000,
  -21.1944,
  14.5728,
  4.9000;

FenestrationSurface:Detailed,
  L1_Zone_8_Window_17,
  Window,
  BIM2BEM_IFC_Window_Construction,
  L1_Zone_8_Wall_1,
  ,
  ,
  ,
  ,
  4,
  -23.1944,
  14.5728,
  4.9000,
  -23.1944,
  14.5728,
  0.9000,
  -24.1944,
  14.5728,
  0.9000,
  -24.1944,
  14.5728,
  4.9000;

FenestrationSurface:Detailed,
  L1_Zone_8_Window_18,
  Window,
  BIM2BEM_IFC_Window_Construction,
  L1_Zone_8_Wall_1,
  ,
  ,
  ,
  ,
  4,
  -26.1932,
  14.5728,
  4.9000,
  -26.1932,
  14.5728,
  0.9000,
  -27.1932,
  14.5728,
  0.9000,
  -27.1932,
  14.5728,
  4.9000;

FenestrationSurface:Detailed,
  L1_Zone_9_Window_1,
  Window,
  BIM2BEM_IFC_Window_Construction,
  L1_Zone_9_Wall_1,
  ,
  ,
  ,
  ,
  4,
  -5.2942,
  14.5728,
  4.9000,
  -5.2942,
  14.5728,
  0.9000,
  -6.2942,
  14.5728,
  0.9000,
  -6.2942,
  14.5728,
  4.9000;

FenestrationSurface:Detailed,
  L1_Zone_9_Window_2,
  Window,
  BIM2BEM_IFC_Window_Construction,
  L1_Zone_9_Wall_1,
  ,
  ,
  ,
  ,
  4,
  -8.2934,
  14.5728,
  4.9000,
  -8.2934,
  14.5728,
  0.9000,
  -9.2934,
  14.5728,
  0.9000,
  -9.2934,
  14.5728,
  4.9000;

FenestrationSurface:Detailed,
  L1_Zone_10_Window_1,
  Window,
  BIM2BEM_IFC_Window_Construction,
  L1_Zone_10_Wall_1,
  ,
  ,
  ,
  ,
  4,
  0.7058,
  14.5728,
  4.9000,
  0.7058,
  14.5728,
  0.9000,
  -0.2942,
  14.5728,
  0.9000,
  -0.2942,
  14.5728,
  4.9000;

FenestrationSurface:Detailed,
  L1_Zone_10_Window_2,
  Window,
  BIM2BEM_IFC_Window_Construction,
  L1_Zone_10_Wall_1,
  ,
  ,
  ,
  ,
  4,
  -2.2932,
  14.5728,
  4.9000,
  -2.2932,
  14.5728,
  0.9000,
  -3.2932,
  14.5728,
  0.9000,
  -3.2932,
  14.5728,
  4.9000;

FenestrationSurface:Detailed,
  L1_Zone_11_Window_1,
  Window,
  BIM2BEM_IFC_Window_Construction,
  L1_Zone_11_Wall_1,
  ,
  ,
  ,
  ,
  4,
  6.8058,
  14.5728,
  4.9000,
  6.8058,
  14.5728,
  0.9000,
  5.8058,
  14.5728,
  0.9000,
  5.8058,
  14.5728,
  4.9000;

FenestrationSurface:Detailed,
  L1_Zone_11_Window_2,
  Window,
  BIM2BEM_IFC_Window_Construction,
  L1_Zone_11_Wall_1,
  ,
  ,
  ,
  ,
  4,
  3.8068,
  14.5728,
  4.9000,
  3.8068,
  14.5728,
  0.9000,
  2.8068,
  14.5728,
  0.9000,
  2.8068,
  14.5728,
  4.9000;

FenestrationSurface:Detailed,
  L1_Zone_19_Window_1,
  Window,
  BIM2BEM_IFC_Window_Construction,
  L1_Zone_19_Wall_1,
  ,
  ,
  ,
  ,
  4,
  14.6808,
  5.0738,
  6.5000,
  14.6808,
  5.0738,
  0.0000,
  20.4808,
  5.0738,
  0.0000,
  20.4808,
  5.0738,
  6.5000;

FenestrationSurface:Detailed,
  L1_Zone_14_Window_1,
  Window,
  BIM2BEM_IFC_Window_Construction,
  L1_Zone_14_Wall_1,
  ,
  ,
  ,
  ,
  4,
  13.0068,
  14.5728,
  4.9000,
  13.0068,
  14.5728,
  0.9000,
  12.0068,
  14.5728,
  0.9000,
  12.0068,
  14.5728,
  4.9000;

FenestrationSurface:Detailed,
  L1_Zone_15_Window_1,
  Window,
  BIM2BEM_IFC_Window_Construction,
  L1_Zone_15_Wall_1,
  ,
  ,
  ,
  ,
  4,
  15.9818,
  14.5728,
  4.9000,
  15.9818,
  14.5728,
  0.9000,
  14.9818,
  14.5728,
  0.9000,
  14.9818,
  14.5728,
  4.9000;

FenestrationSurface:Detailed,
  L1_Zone_16_Window_1,
  Window,
  BIM2BEM_IFC_Window_Construction,
  L1_Zone_16_Wall_1,
  ,
  ,
  ,
  ,
  4,
  19.9808,
  14.5728,
  4.9000,
  19.9808,
  14.5728,
  0.9000,
  18.9808,
  14.5728,
  0.9000,
  18.9808,
  14.5728,
  4.9000;

FenestrationSurface:Detailed,
  L1_Zone_17_Door_1,
  Door,
  BIM2BEM_IFCIntent_Door,
  L1_Zone_17_Wall_7,
  ,
  ,
  ,
  ,
  4,
  21.1418,
  5.0738,
  2.2000,
  21.1418,
  5.0738,
  0.0000,
  22.2418,
  5.0738,
  0.0000,
  22.2418,
  5.0738,
  2.2000;

FenestrationSurface:Detailed,
  L1_Zone_17_Door_2,
  Door,
  BIM2BEM_IFCIntent_Door,
  L1_Zone_17_Wall_7,
  ,
  ,
  ,
  ,
  4,
  22.4608,
  5.0738,
  5.1000,
  22.4608,
  5.0738,
  0.0000,
  27.5608,
  5.0738,
  0.0000,
  27.5608,
  5.0738,
  5.1000;

FenestrationSurface:Detailed,
  L1_Zone_17_Window_1,
  Window,
  BIM2BEM_IFC_Window_Construction,
  L1_Zone_17_Wall_1,
  ,
  ,
  ,
  ,
  4,
  26.6808,
  14.5728,
  4.9000,
  26.6808,
  14.5728,
  0.9000,
  25.6808,
  14.5728,
  0.9000,
  25.6808,
  14.5728,
  4.9000;

FenestrationSurface:Detailed,
  L1_Zone_17_Window_2,
  Window,
  BIM2BEM_IFC_Window_Construction,
  L1_Zone_17_Wall_1,
  ,
  ,
  ,
  ,
  4,
  22.7818,
  14.5728,
  4.9000,
  22.7818,
  14.5728,
  0.9000,
  21.7818,
  14.5728,
  0.9000,
  21.7818,
  14.5728,
  4.9000;

FenestrationSurface:Detailed,
  L1_Zone_18_Door_1,
  Door,
  BIM2BEM_IFCIntent_Door,
  L1_Zone_18_Wall_3,
  ,
  ,
  ,
  ,
  4,
  28.1818,
  5.0738,
  2.2000,
  28.1818,
  5.0738,
  0.0000,
  29.2818,
  5.0738,
  0.0000,
  29.2818,
  5.0738,
  2.2000;

FenestrationSurface:Detailed,
  L1_Zone_18_Door_2,
  Door,
  BIM2BEM_IFCIntent_Door,
  L1_Zone_18_Wall_3,
  ,
  ,
  ,
  ,
  4,
  29.4818,
  5.0738,
  4.6000,
  29.4818,
  5.0738,
  0.0000,
  32.0818,
  5.0738,
  0.0000,
  32.0818,
  5.0738,
  4.6000;

FenestrationSurface:Detailed,
  L1_Zone_18_Window_1,
  Window,
  BIM2BEM_IFC_Window_Construction,
  L1_Zone_18_Wall_4,
  ,
  ,
  ,
  ,
  4,
  34.5058,
  6.3738,
  4.9000,
  34.5058,
  6.3738,
  0.9000,
  34.5058,
  7.3738,
  0.9000,
  34.5058,
  7.3738,
  4.9000;

FenestrationSurface:Detailed,
  L1_Zone_18_Window_2,
  Window,
  BIM2BEM_IFC_Window_Construction,
  L1_Zone_18_Wall_4,
  ,
  ,
  ,
  ,
  4,
  34.5058,
  9.2738,
  4.9000,
  34.5058,
  9.2738,
  0.9000,
  34.5058,
  10.2738,
  0.9000,
  34.5058,
  10.2738,
  4.9000;

FenestrationSurface:Detailed,
  L1_Zone_18_Window_3,
  Window,
  BIM2BEM_IFC_Window_Construction,
  L1_Zone_18_Wall_4,
  ,
  ,
  ,
  ,
  4,
  34.5058,
  12.3728,
  4.9000,
  34.5058,
  12.3728,
  0.9000,
  34.5058,
  13.3728,
  0.9000,
  34.5058,
  13.3728,
  4.9000;

FenestrationSurface:Detailed,
  L1_Zone_18_Window_4,
  Window,
  BIM2BEM_IFC_Window_Construction,
  L1_Zone_18_Wall_1,
  ,
  ,
  ,
  ,
  4,
  33.7058,
  14.5728,
  4.9000,
  33.7058,
  14.5728,
  0.9000,
  32.7058,
  14.5728,
  0.9000,
  32.7058,
  14.5728,
  4.9000;

FenestrationSurface:Detailed,
  L1_Zone_18_Window_5,
  Window,
  BIM2BEM_IFC_Window_Construction,
  L1_Zone_18_Wall_1,
  ,
  ,
  ,
  ,
  4,
  29.7818,
  14.5728,
  4.9000,
  29.7818,
  14.5728,
  0.9000,
  28.7818,
  14.5728,
  0.9000,
  28.7818,
  14.5728,
  4.9000;

FenestrationSurface:Detailed,
  L1_Zone_12_Door_1,
  Door,
  BIM2BEM_IFCIntent_Door,
  L1_Zone_12_Wall_1,
  ,
  ,
  ,
  ,
  4,
  8.4357,
  5.0738,
  5.1000,
  8.4357,
  5.0738,
  0.0000,
  13.5357,
  5.0738,
  0.0000,
  13.5357,
  5.0738,
  5.1000;

FenestrationSurface:Detailed,
  L2_Zone_20_Window_1,
  Window,
  BIM2BEM_IFC_Window_Construction,
  L2_Zone_20_Wall_1,
  ,
  ,
  ,
  ,
  4,
  -34.4932,
  12.8728,
  10.0000,
  -34.4932,
  12.8728,
  8.0000,
  -34.4932,
  11.8728,
  8.0000,
  -34.4932,
  11.8728,
  10.0000;

FenestrationSurface:Detailed,
  L2_Zone_20_Window_2,
  Window,
  BIM2BEM_IFC_Window_Construction,
  L2_Zone_20_Wall_1,
  ,
  ,
  ,
  ,
  4,
  -34.4932,
  9.3538,
  10.0000,
  -34.4932,
  9.3538,
  8.0000,
  -34.4932,
  8.3538,
  8.0000,
  -34.4932,
  8.3538,
  10.0000;

FenestrationSurface:Detailed,
  L2_Zone_20_Window_3,
  Window,
  BIM2BEM_IFC_Window_Construction,
  L2_Zone_20_Wall_4,
  ,
  ,
  ,
  ,
  4,
  -32.2942,
  14.5728,
  10.0000,
  -32.2942,
  14.5728,
  8.0000,
  -33.2942,
  14.5728,
  8.0000,
  -33.2942,
  14.5728,
  10.0000;

FenestrationSurface:Detailed,
  L2_Zone_21_Window_1,
  Window,
  BIM2BEM_IFC_Window_Construction,
  L2_Zone_21_Wall_14,
  ,
  ,
  ,
  ,
  4,
  -34.4932,
  4.8737,
  10.0000,
  -34.4932,
  4.8737,
  8.0000,
  -34.4932,
  3.8737,
  8.0000,
  -34.4932,
  3.8737,
  10.0000;

FenestrationSurface:Detailed,
  L2_Zone_21_Window_2,
  Window,
  BIM2BEM_IFC_Window_Construction,
  L2_Zone_21_Wall_14,
  ,
  ,
  ,
  ,
  4,
  -34.4932,
  -3.1273,
  10.0000,
  -34.4932,
  -3.1273,
  8.0000,
  -34.4932,
  -4.1273,
  8.0000,
  -34.4932,
  -4.1273,
  10.0000;

FenestrationSurface:Detailed,
  L2_Zone_21_Window_3,
  Window,
  BIM2BEM_IFC_Window_Construction,
  L2_Zone_21_Wall_1,
  ,
  ,
  ,
  ,
  4,
  -33.2932,
  -5.8263,
  10.0000,
  -33.2932,
  -5.8263,
  8.0000,
  -32.2932,
  -5.8263,
  8.0000,
  -32.2932,
  -5.8263,
  10.0000;

FenestrationSurface:Detailed,
  L2_Zone_21_Window_4,
  Window,
  BIM2BEM_IFC_Window_Construction,
  L2_Zone_21_Wall_1,
  ,
  ,
  ,
  ,
  4,
  -30.2942,
  -5.8263,
  10.0000,
  -30.2942,
  -5.8263,
  8.0000,
  -29.2942,
  -5.8263,
  8.0000,
  -29.2942,
  -5.8263,
  10.0000;

FenestrationSurface:Detailed,
  L2_Zone_21_Window_5,
  Window,
  BIM2BEM_IFC_Window_Construction,
  L2_Zone_21_Wall_1,
  ,
  ,
  ,
  ,
  4,
  -27.2532,
  -5.8263,
  10.0000,
  -27.2532,
  -5.8263,
  8.0000,
  -26.2532,
  -5.8263,
  8.0000,
  -26.2532,
  -5.8263,
  10.0000;

FenestrationSurface:Detailed,
  L2_Zone_21_Window_6,
  Window,
  BIM2BEM_IFC_Window_Construction,
  L2_Zone_21_Wall_1,
  ,
  ,
  ,
  ,
  4,
  -24.2532,
  -5.8263,
  10.0000,
  -24.2532,
  -5.8263,
  8.0000,
  -23.2532,
  -5.8263,
  8.0000,
  -23.2532,
  -5.8263,
  10.0000;

FenestrationSurface:Detailed,
  L2_Zone_21_Window_7,
  Window,
  BIM2BEM_IFC_Window_Construction,
  L2_Zone_21_Wall_1,
  ,
  ,
  ,
  ,
  4,
  -21.2532,
  -5.8263,
  10.0000,
  -21.2532,
  -5.8263,
  8.0000,
  -20.2532,
  -5.8263,
  8.0000,
  -20.2532,
  -5.8263,
  10.0000;

FenestrationSurface:Detailed,
  L2_Zone_21_Window_8,
  Window,
  BIM2BEM_IFC_Window_Construction,
  L2_Zone_21_Wall_1,
  ,
  ,
  ,
  ,
  4,
  -18.2532,
  -5.8263,
  10.0000,
  -18.2532,
  -5.8263,
  8.0000,
  -17.2532,
  -5.8263,
  8.0000,
  -17.2532,
  -5.8263,
  10.0000;

FenestrationSurface:Detailed,
  L2_Zone_21_Window_9,
  Window,
  BIM2BEM_IFC_Window_Construction,
  L2_Zone_21_Wall_1,
  ,
  ,
  ,
  ,
  4,
  -15.2532,
  -5.8263,
  10.0000,
  -15.2532,
  -5.8263,
  8.0000,
  -14.2532,
  -5.8263,
  8.0000,
  -14.2532,
  -5.8263,
  10.0000;

FenestrationSurface:Detailed,
  L2_Zone_21_Window_10,
  Window,
  BIM2BEM_IFC_Window_Construction,
  L2_Zone_21_Wall_1,
  ,
  ,
  ,
  ,
  4,
  -12.2532,
  -5.8263,
  10.0000,
  -12.2532,
  -5.8263,
  8.0000,
  -11.2532,
  -5.8263,
  8.0000,
  -11.2532,
  -5.8263,
  10.0000;

FenestrationSurface:Detailed,
  L2_Zone_21_Window_11,
  Window,
  BIM2BEM_IFC_Window_Construction,
  L2_Zone_21_Wall_1,
  ,
  ,
  ,
  ,
  4,
  -9.2532,
  -5.8263,
  10.0000,
  -9.2532,
  -5.8263,
  8.0000,
  -8.2532,
  -5.8263,
  8.0000,
  -8.2532,
  -5.8263,
  10.0000;

FenestrationSurface:Detailed,
  L2_Zone_21_Window_12,
  Window,
  BIM2BEM_IFC_Window_Construction,
  L2_Zone_21_Wall_1,
  ,
  ,
  ,
  ,
  4,
  -6.2532,
  -5.8263,
  10.0000,
  -6.2532,
  -5.8263,
  8.0000,
  -5.2532,
  -5.8263,
  8.0000,
  -5.2532,
  -5.8263,
  10.0000;

FenestrationSurface:Detailed,
  L2_Zone_21_Window_13,
  Window,
  BIM2BEM_IFC_Window_Construction,
  L2_Zone_21_Wall_14,
  ,
  ,
  ,
  ,
  4,
  -34.4932,
  0.3732,
  10.0000,
  -34.4932,
  0.3732,
  8.0000,
  -34.4932,
  -0.6268,
  8.0000,
  -34.4932,
  -0.6268,
  10.0000;

FenestrationSurface:Detailed,
  L2_Zone_21_Window_14,
  Window,
  BIM2BEM_IFC_Window_Construction,
  L2_Zone_21_Wall_9,
  ,
  ,
  ,
  ,
  4,
  -5.2942,
  14.5728,
  10.0000,
  -5.2942,
  14.5728,
  8.0000,
  -6.2942,
  14.5728,
  8.0000,
  -6.2942,
  14.5728,
  10.0000;

FenestrationSurface:Detailed,
  L2_Zone_21_Window_15,
  Window,
  BIM2BEM_IFC_Window_Construction,
  L2_Zone_21_Wall_9,
  ,
  ,
  ,
  ,
  4,
  -8.2934,
  14.5728,
  10.0000,
  -8.2934,
  14.5728,
  8.0000,
  -9.2934,
  14.5728,
  8.0000,
  -9.2934,
  14.5728,
  10.0000;

FenestrationSurface:Detailed,
  L2_Zone_21_Window_16,
  Window,
  BIM2BEM_IFC_Window_Construction,
  L2_Zone_21_Wall_9,
  ,
  ,
  ,
  ,
  4,
  -11.1944,
  14.5728,
  10.0000,
  -11.1944,
  14.5728,
  8.0000,
  -12.1944,
  14.5728,
  8.0000,
  -12.1944,
  14.5728,
  10.0000;

FenestrationSurface:Detailed,
  L2_Zone_21_Window_17,
  Window,
  BIM2BEM_IFC_Window_Construction,
  L2_Zone_21_Wall_9,
  ,
  ,
  ,
  ,
  4,
  -14.1944,
  14.5728,
  10.0000,
  -14.1944,
  14.5728,
  8.0000,
  -15.1944,
  14.5728,
  8.0000,
  -15.1944,
  14.5728,
  10.0000;

FenestrationSurface:Detailed,
  L2_Zone_21_Window_18,
  Window,
  BIM2BEM_IFC_Window_Construction,
  L2_Zone_21_Wall_9,
  ,
  ,
  ,
  ,
  4,
  -17.1944,
  14.5728,
  10.0000,
  -17.1944,
  14.5728,
  8.0000,
  -18.1944,
  14.5728,
  8.0000,
  -18.1944,
  14.5728,
  10.0000;

FenestrationSurface:Detailed,
  L2_Zone_21_Window_19,
  Window,
  BIM2BEM_IFC_Window_Construction,
  L2_Zone_21_Wall_9,
  ,
  ,
  ,
  ,
  4,
  -20.1944,
  14.5728,
  10.0000,
  -20.1944,
  14.5728,
  8.0000,
  -21.1944,
  14.5728,
  8.0000,
  -21.1944,
  14.5728,
  10.0000;

FenestrationSurface:Detailed,
  L2_Zone_21_Window_20,
  Window,
  BIM2BEM_IFC_Window_Construction,
  L2_Zone_21_Wall_9,
  ,
  ,
  ,
  ,
  4,
  -23.1944,
  14.5728,
  10.0000,
  -23.1944,
  14.5728,
  8.0000,
  -24.1944,
  14.5728,
  8.0000,
  -24.1944,
  14.5728,
  10.0000;

FenestrationSurface:Detailed,
  L2_Zone_21_Window_21,
  Window,
  BIM2BEM_IFC_Window_Construction,
  L2_Zone_21_Wall_9,
  ,
  ,
  ,
  ,
  4,
  -26.1932,
  14.5728,
  10.0000,
  -26.1932,
  14.5728,
  8.0000,
  -27.1932,
  14.5728,
  8.0000,
  -27.1932,
  14.5728,
  10.0000;

FenestrationSurface:Detailed,
  L2_Zone_21_Window_22,
  Window,
  BIM2BEM_IFC_Window_Construction,
  L2_Zone_21_Wall_9,
  ,
  ,
  ,
  ,
  4,
  -29.1932,
  14.5728,
  10.0000,
  -29.1932,
  14.5728,
  8.0000,
  -30.1932,
  14.5728,
  8.0000,
  -30.1932,
  14.5728,
  10.0000;

FenestrationSurface:Detailed,
  L2_Zone_22_Window_1,
  Window,
  BIM2BEM_IFC_Window_Construction,
  L2_Zone_22_Wall_6,
  ,
  ,
  ,
  ,
  4,
  -2.2932,
  14.5728,
  10.0000,
  -2.2932,
  14.5728,
  8.0000,
  -3.2932,
  14.5728,
  8.0000,
  -3.2932,
  14.5728,
  10.0000;

FenestrationSurface:Detailed,
  L2_Zone_25_Window_1,
  Window,
  BIM2BEM_IFC_Window_Construction,
  L2_Zone_25_Wall_3,
  ,
  ,
  ,
  ,
  4,
  -3.2532,
  -5.8263,
  12.0000,
  -3.2532,
  -5.8263,
  8.0000,
  -2.2532,
  -5.8263,
  8.0000,
  -2.2532,
  -5.8263,
  12.0000;

FenestrationSurface:Detailed,
  L2_Zone_25_Window_2,
  Window,
  BIM2BEM_IFC_Window_Construction,
  L2_Zone_25_Wall_3,
  ,
  ,
  ,
  ,
  4,
  -0.2942,
  -5.8263,
  12.0000,
  -0.2942,
  -5.8263,
  8.0000,
  0.7058,
  -5.8263,
  8.0000,
  0.7058,
  -5.8263,
  12.0000;

FenestrationSurface:Detailed,
  L2_Zone_23_Window_1,
  Window,
  BIM2BEM_IFC_Window_Construction,
  L2_Zone_23_Wall_3,
  ,
  ,
  ,
  ,
  4,
  0.7058,
  14.5728,
  10.0000,
  0.7058,
  14.5728,
  8.0000,
  -0.2942,
  14.5728,
  8.0000,
  -0.2942,
  14.5728,
  10.0000;

FenestrationSurface:Detailed,
  L2_Zone_27_Door_1,
  Door,
  BIM2BEM_IFCIntent_Door,
  L2_Zone_27_Wall_9,
  ,
  ,
  ,
  ,
  4,
  6.7867,
  13.0800,
  9.1000,
  6.7867,
  13.0800,
  7.0000,
  5.7867,
  13.0800,
  7.0000,
  5.7867,
  13.0800,
  9.1000;

FenestrationSurface:Detailed,
  L2_Zone_28_Window_1,
  Window,
  BIM2BEM_IFC_Window_Construction,
  L2_Zone_28_Wall_3,
  ,
  ,
  ,
  ,
  4,
  2.7068,
  -0.8262,
  10.0000,
  2.7068,
  -0.8262,
  8.0000,
  3.7068,
  -0.8262,
  8.0000,
  3.7068,
  -0.8262,
  10.0000;

FenestrationSurface:Detailed,
  L2_Zone_28_Window_2,
  Window,
  BIM2BEM_IFC_Window_Construction,
  L2_Zone_28_Wall_3,
  ,
  ,
  ,
  ,
  4,
  5.8058,
  -0.8262,
  10.0000,
  5.8058,
  -0.8262,
  8.0000,
  6.8058,
  -0.8262,
  8.0000,
  6.8058,
  -0.8262,
  10.0000;

FenestrationSurface:Detailed,
  L2_Zone_29_Window_1,
  Window,
  BIM2BEM_IFC_Window_Construction,
  L2_Zone_29_Wall_6,
  ,
  ,
  ,
  ,
  4,
  8.7468,
  -5.8262,
  10.0000,
  8.7468,
  -5.8262,
  8.0000,
  9.7468,
  -5.8262,
  8.0000,
  9.7468,
  -5.8262,
  10.0000;

FenestrationSurface:Detailed,
  L2_Zone_29_Window_2,
  Window,
  BIM2BEM_IFC_Window_Construction,
  L2_Zone_29_Wall_6,
  ,
  ,
  ,
  ,
  4,
  10.7468,
  -5.8262,
  10.0000,
  10.7468,
  -5.8262,
  8.0000,
  11.7468,
  -5.8262,
  8.0000,
  11.7468,
  -5.8262,
  10.0000;

FenestrationSurface:Detailed,
  L2_Zone_29_Window_3,
  Window,
  BIM2BEM_IFC_Window_Construction,
  L2_Zone_29_Wall_6,
  ,
  ,
  ,
  ,
  4,
  12.7668,
  -5.8262,
  10.0000,
  12.7668,
  -5.8262,
  8.0000,
  13.7668,
  -5.8262,
  8.0000,
  13.7668,
  -5.8262,
  10.0000;

FenestrationSurface:Detailed,
  L2_Zone_29_Window_4,
  Window,
  BIM2BEM_IFC_Window_Construction,
  L2_Zone_29_Wall_6,
  ,
  ,
  ,
  ,
  4,
  14.7668,
  -5.8262,
  10.0000,
  14.7668,
  -5.8262,
  8.0000,
  15.7668,
  -5.8262,
  8.0000,
  15.7668,
  -5.8262,
  10.0000;

FenestrationSurface:Detailed,
  L2_Zone_32_Window_1,
  Window,
  BIM2BEM_IFC_Window_Construction,
  L2_Zone_32_Wall_4,
  ,
  ,
  ,
  ,
  4,
  13.0068,
  14.5728,
  10.0000,
  13.0068,
  14.5728,
  8.0000,
  12.0068,
  14.5728,
  8.0000,
  12.0068,
  14.5728,
  10.0000;

FenestrationSurface:Detailed,
  L2_Zone_34_Window_1,
  Window,
  BIM2BEM_IFC_Window_Construction,
  L2_Zone_34_Wall_3,
  ,
  ,
  ,
  ,
  4,
  15.9818,
  14.5728,
  10.0000,
  15.9818,
  14.5728,
  8.0000,
  14.9818,
  14.5728,
  8.0000,
  14.9818,
  14.5728,
  10.0000;

FenestrationSurface:Detailed,
  L2_Zone_35_Window_1,
  Window,
  BIM2BEM_IFC_Window_Construction,
  L2_Zone_35_Wall_3,
  ,
  ,
  ,
  ,
  4,
  19.9808,
  14.5728,
  10.0000,
  19.9808,
  14.5728,
  8.0000,
  18.9808,
  14.5728,
  8.0000,
  18.9808,
  14.5728,
  10.0000;

FenestrationSurface:Detailed,
  L2_Zone_36_Window_1,
  Window,
  BIM2BEM_IFC_Window_Construction,
  L2_Zone_36_Wall_5,
  ,
  ,
  ,
  ,
  4,
  26.6808,
  14.5728,
  10.0000,
  26.6808,
  14.5728,
  8.0000,
  25.6808,
  14.5728,
  8.0000,
  25.6808,
  14.5728,
  10.0000;

FenestrationSurface:Detailed,
  L2_Zone_36_Window_2,
  Window,
  BIM2BEM_IFC_Window_Construction,
  L2_Zone_36_Wall_5,
  ,
  ,
  ,
  ,
  4,
  22.7818,
  14.5728,
  10.0000,
  22.7818,
  14.5728,
  8.0000,
  21.7818,
  14.5728,
  8.0000,
  21.7818,
  14.5728,
  10.0000;

FenestrationSurface:Detailed,
  L2_Zone_37_Window_1,
  Window,
  BIM2BEM_IFC_Window_Construction,
  L2_Zone_37_Wall_4,
  ,
  ,
  ,
  ,
  4,
  29.7818,
  14.5728,
  10.0000,
  29.7818,
  14.5728,
  8.0000,
  28.7818,
  14.5728,
  8.0000,
  28.7818,
  14.5728,
  10.0000;

FenestrationSurface:Detailed,
  L2_Zone_39_Window_1,
  Window,
  BIM2BEM_IFC_Window_Construction,
  L2_Zone_39_Wall_2,
  ,
  ,
  ,
  ,
  4,
  33.7058,
  14.5728,
  10.0000,
  33.7058,
  14.5728,
  8.0000,
  32.7058,
  14.5728,
  8.0000,
  32.7058,
  14.5728,
  10.0000;

FenestrationSurface:Detailed,
  L2_Zone_40_Door_1,
  Door,
  BIM2BEM_IFCIntent_Door,
  L2_Zone_40_Wall_2,
  ,
  ,
  ,
  ,
  4,
  33.0035,
  11.3149,
  9.1000,
  33.0035,
  11.3149,
  7.0000,
  33.0035,
  12.3149,
  7.0000,
  33.0035,
  12.3149,
  9.1000;

FenestrationSurface:Detailed,
  L2_Zone_40_Window_1,
  Window,
  BIM2BEM_IFC_Window_Construction,
  L2_Zone_40_Wall_1,
  ,
  ,
  ,
  ,
  4,
  29.2445,
  5.0738,
  10.0000,
  29.2445,
  5.0738,
  8.0000,
  30.2445,
  5.0738,
  8.0000,
  30.2445,
  5.0738,
  10.0000;

FenestrationSurface:Detailed,
  L2_Zone_40_Window_2,
  Window,
  BIM2BEM_IFC_Window_Construction,
  L2_Zone_40_Wall_1,
  ,
  ,
  ,
  ,
  4,
  31.2645,
  5.0738,
  10.0000,
  31.2645,
  5.0738,
  8.0000,
  32.2645,
  5.0738,
  8.0000,
  32.2645,
  5.0738,
  10.0000;

FenestrationSurface:Detailed,
  L2_Zone_40_Window_3,
  Window,
  BIM2BEM_IFC_Window_Construction,
  L2_Zone_40_Wall_2,
  ,
  ,
  ,
  ,
  4,
  33.0035,
  5.1538,
  10.1000,
  33.0035,
  5.1538,
  7.1500,
  33.0035,
  11.1538,
  7.1500,
  33.0035,
  11.1538,
  10.1000;

FenestrationSurface:Detailed,
  L2_Zone_43_Window_1,
  Window,
  BIM2BEM_IFC_Window_Construction,
  L2_Zone_43_Wall_4,
  ,
  ,
  ,
  ,
  4,
  21.0058,
  -1.2407,
  12.8500,
  21.0058,
  -1.2407,
  7.1500,
  21.0058,
  4.7593,
  7.1500,
  21.0058,
  4.7593,
  12.8500;

FenestrationSurface:Detailed,
  L2_Zone_44_Window_1,
  Window,
  BIM2BEM_IFC_Window_Construction,
  L2_Zone_44_Wall_1,
  ,
  ,
  ,
  ,
  4,
  17.3552,
  -5.8262,
  10.0000,
  17.3552,
  -5.8262,
  8.0000,
  18.3552,
  -5.8262,
  8.0000,
  18.3552,
  -5.8262,
  10.0000;

FenestrationSurface:Detailed,
  L2_Zone_44_Window_2,
  Window,
  BIM2BEM_IFC_Window_Construction,
  L2_Zone_44_Wall_1,
  ,
  ,
  ,
  ,
  4,
  19.3552,
  -5.8262,
  10.0000,
  19.3552,
  -5.8262,
  8.0000,
  20.3552,
  -5.8262,
  8.0000,
  20.3552,
  -5.8262,
  10.0000;

FenestrationSurface:Detailed,
  L2_Zone_44_Window_3,
  Window,
  BIM2BEM_IFC_Window_Construction,
  L2_Zone_44_Wall_2,
  ,
  ,
  ,
  ,
  4,
  21.0058,
  -5.5707,
  12.8500,
  21.0058,
  -5.5707,
  7.1500,
  21.0058,
  -1.5707,
  7.1500,
  21.0058,
  -1.5707,
  12.8500;

FenestrationSurface:Detailed,
  L3_Zone_46_Window_1,
  Window,
  BIM2BEM_IFC_Window_Construction,
  L3_Zone_46_Wall_1,
  ,
  ,
  ,
  ,
  4,
  13.0068,
  14.5728,
  16.0000,
  13.0068,
  14.5728,
  14.0000,
  12.0068,
  14.5728,
  14.0000,
  12.0068,
  14.5728,
  16.0000;

FenestrationSurface:Detailed,
  L3_Zone_47_Window_1,
  Window,
  BIM2BEM_IFC_Window_Construction,
  L3_Zone_47_Wall_1,
  ,
  ,
  ,
  ,
  4,
  8.1068,
  5.0720,
  16.0000,
  8.1068,
  5.0720,
  14.0000,
  9.1068,
  5.0720,
  14.0000,
  9.1068,
  5.0720,
  16.0000;

FenestrationSurface:Detailed,
  L3_Zone_47_Window_2,
  Window,
  BIM2BEM_IFC_Window_Construction,
  L3_Zone_47_Wall_1,
  ,
  ,
  ,
  ,
  4,
  10.1068,
  5.0720,
  16.0000,
  10.1068,
  5.0720,
  14.0000,
  11.1068,
  5.0720,
  14.0000,
  11.1068,
  5.0720,
  16.0000;

FenestrationSurface:Detailed,
  L3_Zone_47_Window_3,
  Window,
  BIM2BEM_IFC_Window_Construction,
  L3_Zone_47_Wall_1,
  ,
  ,
  ,
  ,
  4,
  12.0068,
  5.0720,
  16.0000,
  12.0068,
  5.0720,
  14.0000,
  13.0068,
  5.0720,
  14.0000,
  13.0068,
  5.0720,
  16.0000;

FenestrationSurface:Detailed,
  L3_Zone_49_Window_1,
  Window,
  BIM2BEM_IFC_Window_Construction,
  L3_Zone_49_Wall_1,
  ,
  ,
  ,
  ,
  4,
  16.0044,
  14.5728,
  16.0000,
  16.0044,
  14.5728,
  14.0000,
  15.0044,
  14.5728,
  14.0000,
  15.0044,
  14.5728,
  16.0000;

FenestrationSurface:Detailed,
  L3_Zone_50_Window_1,
  Window,
  BIM2BEM_IFC_Window_Construction,
  L3_Zone_50_Wall_1,
  ,
  ,
  ,
  ,
  4,
  14.5808,
  5.0720,
  16.7100,
  14.5808,
  5.0720,
  13.1100,
  20.5808,
  5.0720,
  13.1100,
  20.5808,
  5.0720,
  16.7100;

FenestrationSurface:Detailed,
  L3_Zone_51_Window_1,
  Window,
  BIM2BEM_IFC_Window_Construction,
  L3_Zone_51_Wall_1,
  ,
  ,
  ,
  ,
  4,
  19.1334,
  14.5728,
  16.0000,
  19.1334,
  14.5728,
  14.0000,
  18.1334,
  14.5728,
  14.0000,
  18.1334,
  14.5728,
  16.0000;

FenestrationSurface:Detailed,
  L3_Zone_53_Window_1,
  Window,
  BIM2BEM_IFC_Window_Construction,
  L3_Zone_53_Wall_1,
  ,
  ,
  ,
  ,
  4,
  26.6808,
  14.5728,
  16.0000,
  26.6808,
  14.5728,
  14.0000,
  25.6808,
  14.5728,
  14.0000,
  25.6808,
  14.5728,
  16.0000;

FenestrationSurface:Detailed,
  L3_Zone_53_Window_2,
  Window,
  BIM2BEM_IFC_Window_Construction,
  L3_Zone_53_Wall_1,
  ,
  ,
  ,
  ,
  4,
  22.7818,
  14.5728,
  16.0000,
  22.7818,
  14.5728,
  14.0000,
  21.7818,
  14.5728,
  14.0000,
  21.7818,
  14.5728,
  16.0000;

FenestrationSurface:Detailed,
  L3_Zone_54_Window_1,
  Window,
  BIM2BEM_IFC_Window_Construction,
  L3_Zone_54_Wall_1,
  ,
  ,
  ,
  ,
  4,
  22.2373,
  5.0720,
  16.0000,
  22.2373,
  5.0720,
  14.0000,
  23.2373,
  5.0720,
  14.0000,
  23.2373,
  5.0720,
  16.0000;

FenestrationSurface:Detailed,
  L3_Zone_54_Window_2,
  Window,
  BIM2BEM_IFC_Window_Construction,
  L3_Zone_54_Wall_1,
  ,
  ,
  ,
  ,
  4,
  25.3034,
  5.0720,
  16.0000,
  25.3034,
  5.0720,
  14.0000,
  26.3034,
  5.0720,
  14.0000,
  26.3034,
  5.0720,
  16.0000;

FenestrationSurface:Detailed,
  L3_Zone_55_Window_1,
  Window,
  BIM2BEM_IFC_Window_Construction,
  L3_Zone_55_Wall_6,
  ,
  ,
  ,
  ,
  4,
  29.2644,
  5.0720,
  16.0000,
  29.2644,
  5.0720,
  14.0000,
  30.2644,
  5.0720,
  14.0000,
  30.2644,
  5.0720,
  16.0000;

FenestrationSurface:Detailed,
  L3_Zone_55_Window_2,
  Window,
  BIM2BEM_IFC_Window_Construction,
  L3_Zone_55_Wall_6,
  ,
  ,
  ,
  ,
  4,
  31.2644,
  5.0720,
  16.0000,
  31.2644,
  5.0720,
  14.0000,
  32.2644,
  5.0720,
  14.0000,
  32.2644,
  5.0720,
  16.0000;

FenestrationSurface:Detailed,
  L3_Zone_55_Window_3,
  Window,
  BIM2BEM_IFC_Window_Construction,
  L3_Zone_55_Wall_1,
  ,
  ,
  ,
  ,
  4,
  34.5058,
  6.3215,
  16.0000,
  34.5058,
  6.3215,
  14.0000,
  34.5058,
  7.3215,
  14.0000,
  34.5058,
  7.3215,
  16.0000;

FenestrationSurface:Detailed,
  L3_Zone_57_Window_1,
  Window,
  BIM2BEM_IFC_Window_Construction,
  L3_Zone_57_Wall_2,
  ,
  ,
  ,
  ,
  4,
  33.7058,
  14.5728,
  16.0000,
  33.7058,
  14.5728,
  14.0000,
  32.7058,
  14.5728,
  14.0000,
  32.7058,
  14.5728,
  16.0000;

FenestrationSurface:Detailed,
  L3_Zone_57_Window_2,
  Window,
  BIM2BEM_IFC_Window_Construction,
  L3_Zone_57_Wall_2,
  ,
  ,
  ,
  ,
  4,
  29.7818,
  14.5728,
  16.0000,
  29.7818,
  14.5728,
  14.0000,
  28.7818,
  14.5728,
  14.0000,
  28.7818,
  14.5728,
  16.0000;

FenestrationSurface:Detailed,
  L4_Zone_58_Door_1,
  Door,
  BIM2BEM_IFCIntent_Door,
  L4_Zone_58_Wall_3,
  ,
  ,
  ,
  ,
  4,
  11.4010,
  10.6920,
  19.1000,
  11.4010,
  10.6920,
  17.0000,
  13.3010,
  10.6920,
  17.0000,
  13.3010,
  10.6920,
  19.1000;

FenestrationSurface:Detailed,
  L4_Zone_58_Window_1,
  Window,
  BIM2BEM_IFC_Window_Construction,
  L4_Zone_58_Wall_1,
  ,
  ,
  ,
  ,
  4,
  13.0068,
  14.5728,
  20.0000,
  13.0068,
  14.5728,
  18.0000,
  12.0068,
  14.5728,
  18.0000,
  12.0068,
  14.5728,
  20.0000;

FenestrationSurface:Detailed,
  L4_Zone_60_Door_1,
  Door,
  BIM2BEM_IFCIntent_Door,
  L4_Zone_60_Wall_5,
  ,
  ,
  ,
  ,
  4,
  21.0010,
  9.0861,
  19.1000,
  21.0010,
  9.0861,
  17.0000,
  21.0010,
  10.9861,
  17.0000,
  21.0010,
  10.9861,
  19.1000;

FenestrationSurface:Detailed,
  L4_Zone_60_Window_1,
  Window,
  BIM2BEM_IFC_Window_Construction,
  L4_Zone_60_Wall_1,
  ,
  ,
  ,
  ,
  4,
  16.0044,
  14.5728,
  20.0000,
  16.0044,
  14.5728,
  18.0000,
  15.0044,
  14.5728,
  18.0000,
  15.0044,
  14.5728,
  20.0000;

FenestrationSurface:Detailed,
  L4_Zone_60_Window_2,
  Window,
  BIM2BEM_IFC_Window_Construction,
  L4_Zone_60_Wall_1,
  ,
  ,
  ,
  ,
  4,
  19.1334,
  14.5728,
  20.0000,
  19.1334,
  14.5728,
  18.0000,
  18.1334,
  14.5728,
  18.0000,
  18.1334,
  14.5728,
  20.0000;

FenestrationSurface:Detailed,
  L4_Zone_61_Door_1,
  Door,
  BIM2BEM_IFCIntent_Door,
  L4_Zone_61_Wall_4,
  ,
  ,
  ,
  ,
  4,
  13.9973,
  7.9470,
  19.1000,
  13.9973,
  7.9470,
  17.0000,
  13.9973,
  6.0470,
  17.0000,
  13.9973,
  6.0470,
  19.1000;

FenestrationSurface:Detailed,
  L4_Zone_61_Window_1,
  Window,
  BIM2BEM_IFC_Window_Construction,
  L4_Zone_61_Wall_1,
  ,
  ,
  ,
  ,
  4,
  14.5808,
  5.0720,
  20.1500,
  14.5808,
  5.0720,
  17.2000,
  20.5808,
  5.0720,
  17.2000,
  20.5808,
  5.0720,
  20.1500;

FenestrationSurface:Detailed,
  L2_Zone_26_Window_1,
  Window,
  BIM2BEM_IFC_Window_Construction,
  L2_Zone_26_Wall_1,
  ,
  ,
  ,
  ,
  4,
  22.2468,
  5.0738,
  10.0000,
  22.2468,
  5.0738,
  8.0000,
  23.2468,
  5.0738,
  8.0000,
  23.2468,
  5.0738,
  10.0000;

FenestrationSurface:Detailed,
  L2_Zone_26_Window_2,
  Window,
  BIM2BEM_IFC_Window_Construction,
  L2_Zone_26_Wall_1,
  ,
  ,
  ,
  ,
  4,
  25.2435,
  5.0738,
  10.0000,
  25.2435,
  5.0738,
  8.0000,
  26.2435,
  5.0738,
  8.0000,
  26.2435,
  5.0738,
  10.0000;

HVACTemplate:Zone:IdealLoadsAirSystem,
  L1_Zone_1,
  Constant Setpoint Thermostat,
  ,
  50,
  13,
  0.0156,
  0.0077,
  NoLimit,
  ,
  ,
  NoLimit,
  ,
  ,
  ,
  ,
  ConstantSensibleHeatRatio,
  0.7,
  60,
  None,
  30,
  Sum,
  0.0025957109376,
  0.0003048,
  ,
  ,
  None,
  NoEconomizer,
  None,
  0.7,
  0.65;

HVACTemplate:Zone:IdealLoadsAirSystem,
  L1_Zone_2,
  Constant Setpoint Thermostat,
  ,
  50,
  13,
  0.0156,
  0.0077,
  NoLimit,
  ,
  ,
  NoLimit,
  ,
  ,
  ,
  ,
  ConstantSensibleHeatRatio,
  0.7,
  60,
  None,
  30,
  Sum,
  0.0025957109376,
  0.0003048,
  ,
  ,
  None,
  NoEconomizer,
  None,
  0.7,
  0.65;

HVACTemplate:Zone:IdealLoadsAirSystem,
  L1_Zone_3,
  Constant Setpoint Thermostat,
  ,
  50,
  13,
  0.0156,
  0.0077,
  NoLimit,
  ,
  ,
  NoLimit,
  ,
  ,
  ,
  ,
  ConstantSensibleHeatRatio,
  0.7,
  60,
  None,
  30,
  Sum,
  0.0025957109376,
  0.0003048,
  ,
  ,
  None,
  NoEconomizer,
  None,
  0.7,
  0.65;

HVACTemplate:Zone:IdealLoadsAirSystem,
  L1_Zone_4,
  Constant Setpoint Thermostat,
  ,
  50,
  13,
  0.0156,
  0.0077,
  NoLimit,
  ,
  ,
  NoLimit,
  ,
  ,
  ,
  ,
  ConstantSensibleHeatRatio,
  0.7,
  60,
  None,
  30,
  Sum,
  0.0025957109376,
  0.0003048,
  ,
  ,
  None,
  NoEconomizer,
  None,
  0.7,
  0.65;

HVACTemplate:Zone:IdealLoadsAirSystem,
  L1_Zone_5,
  Constant Setpoint Thermostat,
  ,
  50,
  13,
  0.0156,
  0.0077,
  NoLimit,
  ,
  ,
  NoLimit,
  ,
  ,
  ,
  ,
  ConstantSensibleHeatRatio,
  0.7,
  60,
  None,
  30,
  Sum,
  0.0025957109376,
  0.0003048,
  ,
  ,
  None,
  NoEconomizer,
  None,
  0.7,
  0.65;

HVACTemplate:Zone:IdealLoadsAirSystem,
  L1_Zone_6,
  Constant Setpoint Thermostat,
  ,
  50,
  13,
  0.0156,
  0.0077,
  NoLimit,
  ,
  ,
  NoLimit,
  ,
  ,
  ,
  ,
  ConstantSensibleHeatRatio,
  0.7,
  60,
  None,
  30,
  Sum,
  0.0025957109376,
  0.0003048,
  ,
  ,
  None,
  NoEconomizer,
  None,
  0.7,
  0.65;

HVACTemplate:Zone:IdealLoadsAirSystem,
  L1_Zone_7,
  Constant Setpoint Thermostat,
  ,
  50,
  13,
  0.0156,
  0.0077,
  NoLimit,
  ,
  ,
  NoLimit,
  ,
  ,
  ,
  ,
  ConstantSensibleHeatRatio,
  0.7,
  60,
  None,
  30,
  Sum,
  0.0025957109376,
  0.0003048,
  ,
  ,
  None,
  NoEconomizer,
  None,
  0.7,
  0.65;

HVACTemplate:Zone:IdealLoadsAirSystem,
  L1_Zone_8,
  Constant Setpoint Thermostat,
  ,
  50,
  13,
  0.0156,
  0.0077,
  NoLimit,
  ,
  ,
  NoLimit,
  ,
  ,
  ,
  ,
  ConstantSensibleHeatRatio,
  0.7,
  60,
  None,
  30,
  Sum,
  0.0025957109376,
  0.0003048,
  ,
  ,
  None,
  NoEconomizer,
  None,
  0.7,
  0.65;

HVACTemplate:Zone:IdealLoadsAirSystem,
  L1_Zone_9,
  Constant Setpoint Thermostat,
  ,
  50,
  13,
  0.0156,
  0.0077,
  NoLimit,
  ,
  ,
  NoLimit,
  ,
  ,
  ,
  ,
  ConstantSensibleHeatRatio,
  0.7,
  60,
  None,
  30,
  Sum,
  0.0025957109376,
  0.0003048,
  ,
  ,
  None,
  NoEconomizer,
  None,
  0.7,
  0.65;

HVACTemplate:Zone:IdealLoadsAirSystem,
  L1_Zone_10,
  Constant Setpoint Thermostat,
  ,
  50,
  13,
  0.0156,
  0.0077,
  NoLimit,
  ,
  ,
  NoLimit,
  ,
  ,
  ,
  ,
  ConstantSensibleHeatRatio,
  0.7,
  60,
  None,
  30,
  Sum,
  0.0025957109376,
  0.0003048,
  ,
  ,
  None,
  NoEconomizer,
  None,
  0.7,
  0.65;

HVACTemplate:Zone:IdealLoadsAirSystem,
  L1_Zone_11,
  Constant Setpoint Thermostat,
  ,
  50,
  13,
  0.0156,
  0.0077,
  NoLimit,
  ,
  ,
  NoLimit,
  ,
  ,
  ,
  ,
  ConstantSensibleHeatRatio,
  0.7,
  60,
  None,
  30,
  Sum,
  0.0025957109376,
  0.0003048,
  ,
  ,
  None,
  NoEconomizer,
  None,
  0.7,
  0.65;

HVACTemplate:Zone:IdealLoadsAirSystem,
  L1_Zone_19,
  Constant Setpoint Thermostat,
  ,
  50,
  13,
  0.0156,
  0.0077,
  NoLimit,
  ,
  ,
  NoLimit,
  ,
  ,
  ,
  ,
  ConstantSensibleHeatRatio,
  0.7,
  60,
  None,
  30,
  Sum,
  0.0025957109376,
  0.0003048,
  ,
  ,
  None,
  NoEconomizer,
  None,
  0.7,
  0.65;

HVACTemplate:Zone:IdealLoadsAirSystem,
  L1_Zone_13,
  Constant Setpoint Thermostat,
  ,
  50,
  13,
  0.0156,
  0.0077,
  NoLimit,
  ,
  ,
  NoLimit,
  ,
  ,
  ,
  ,
  ConstantSensibleHeatRatio,
  0.7,
  60,
  None,
  30,
  Sum,
  0.0025957109376,
  0.0003048,
  ,
  ,
  None,
  NoEconomizer,
  None,
  0.7,
  0.65;

HVACTemplate:Zone:IdealLoadsAirSystem,
  L1_Zone_14,
  Constant Setpoint Thermostat,
  ,
  50,
  13,
  0.0156,
  0.0077,
  NoLimit,
  ,
  ,
  NoLimit,
  ,
  ,
  ,
  ,
  ConstantSensibleHeatRatio,
  0.7,
  60,
  None,
  30,
  Sum,
  0.0025957109376,
  0.0003048,
  ,
  ,
  None,
  NoEconomizer,
  None,
  0.7,
  0.65;

HVACTemplate:Zone:IdealLoadsAirSystem,
  L1_Zone_15,
  Constant Setpoint Thermostat,
  ,
  50,
  13,
  0.0156,
  0.0077,
  NoLimit,
  ,
  ,
  NoLimit,
  ,
  ,
  ,
  ,
  ConstantSensibleHeatRatio,
  0.7,
  60,
  None,
  30,
  Sum,
  0.0025957109376,
  0.0003048,
  ,
  ,
  None,
  NoEconomizer,
  None,
  0.7,
  0.65;

HVACTemplate:Zone:IdealLoadsAirSystem,
  L1_Zone_16,
  Constant Setpoint Thermostat,
  ,
  50,
  13,
  0.0156,
  0.0077,
  NoLimit,
  ,
  ,
  NoLimit,
  ,
  ,
  ,
  ,
  ConstantSensibleHeatRatio,
  0.7,
  60,
  None,
  30,
  Sum,
  0.0025957109376,
  0.0003048,
  ,
  ,
  None,
  NoEconomizer,
  None,
  0.7,
  0.65;

HVACTemplate:Zone:IdealLoadsAirSystem,
  L1_Zone_17,
  Constant Setpoint Thermostat,
  ,
  50,
  13,
  0.0156,
  0.0077,
  NoLimit,
  ,
  ,
  NoLimit,
  ,
  ,
  ,
  ,
  ConstantSensibleHeatRatio,
  0.7,
  60,
  None,
  30,
  Sum,
  0.0025957109376,
  0.0003048,
  ,
  ,
  None,
  NoEconomizer,
  None,
  0.7,
  0.65;

HVACTemplate:Zone:IdealLoadsAirSystem,
  L1_Zone_18,
  Constant Setpoint Thermostat,
  ,
  50,
  13,
  0.0156,
  0.0077,
  NoLimit,
  ,
  ,
  NoLimit,
  ,
  ,
  ,
  ,
  ConstantSensibleHeatRatio,
  0.7,
  60,
  None,
  30,
  Sum,
  0.0025957109376,
  0.0003048,
  ,
  ,
  None,
  NoEconomizer,
  None,
  0.7,
  0.65;

HVACTemplate:Zone:IdealLoadsAirSystem,
  L1_Zone_12,
  Constant Setpoint Thermostat,
  ,
  50,
  13,
  0.0156,
  0.0077,
  NoLimit,
  ,
  ,
  NoLimit,
  ,
  ,
  ,
  ,
  ConstantSensibleHeatRatio,
  0.7,
  60,
  None,
  30,
  Sum,
  0.0025957109376,
  0.0003048,
  ,
  ,
  None,
  NoEconomizer,
  None,
  0.7,
  0.65;

HVACTemplate:Zone:IdealLoadsAirSystem,
  L2_Zone_20,
  Constant Setpoint Thermostat,
  ,
  50,
  13,
  0.0156,
  0.0077,
  NoLimit,
  ,
  ,
  NoLimit,
  ,
  ,
  ,
  ,
  ConstantSensibleHeatRatio,
  0.7,
  60,
  None,
  30,
  Sum,
  0.0025957109376,
  0.0003048,
  ,
  ,
  None,
  NoEconomizer,
  None,
  0.7,
  0.65;

HVACTemplate:Zone:IdealLoadsAirSystem,
  L2_Zone_21,
  Constant Setpoint Thermostat,
  ,
  50,
  13,
  0.0156,
  0.0077,
  NoLimit,
  ,
  ,
  NoLimit,
  ,
  ,
  ,
  ,
  ConstantSensibleHeatRatio,
  0.7,
  60,
  None,
  30,
  Sum,
  0.0025957109376,
  0.0003048,
  ,
  ,
  None,
  NoEconomizer,
  None,
  0.7,
  0.65;

HVACTemplate:Zone:IdealLoadsAirSystem,
  L2_Zone_22,
  Constant Setpoint Thermostat,
  ,
  50,
  13,
  0.0156,
  0.0077,
  NoLimit,
  ,
  ,
  NoLimit,
  ,
  ,
  ,
  ,
  ConstantSensibleHeatRatio,
  0.7,
  60,
  None,
  30,
  Sum,
  0.0025957109376,
  0.0003048,
  ,
  ,
  None,
  NoEconomizer,
  None,
  0.7,
  0.65;

HVACTemplate:Zone:IdealLoadsAirSystem,
  L2_Zone_25,
  Constant Setpoint Thermostat,
  ,
  50,
  13,
  0.0156,
  0.0077,
  NoLimit,
  ,
  ,
  NoLimit,
  ,
  ,
  ,
  ,
  ConstantSensibleHeatRatio,
  0.7,
  60,
  None,
  30,
  Sum,
  0.0025957109376,
  0.0003048,
  ,
  ,
  None,
  NoEconomizer,
  None,
  0.7,
  0.65;

HVACTemplate:Zone:IdealLoadsAirSystem,
  L2_Zone_24,
  Constant Setpoint Thermostat,
  ,
  50,
  13,
  0.0156,
  0.0077,
  NoLimit,
  ,
  ,
  NoLimit,
  ,
  ,
  ,
  ,
  ConstantSensibleHeatRatio,
  0.7,
  60,
  None,
  30,
  Sum,
  0.0025957109376,
  0.0003048,
  ,
  ,
  None,
  NoEconomizer,
  None,
  0.7,
  0.65;

HVACTemplate:Zone:IdealLoadsAirSystem,
  L2_Zone_23,
  Constant Setpoint Thermostat,
  ,
  50,
  13,
  0.0156,
  0.0077,
  NoLimit,
  ,
  ,
  NoLimit,
  ,
  ,
  ,
  ,
  ConstantSensibleHeatRatio,
  0.7,
  60,
  None,
  30,
  Sum,
  0.0025957109376,
  0.0003048,
  ,
  ,
  None,
  NoEconomizer,
  None,
  0.7,
  0.65;

HVACTemplate:Zone:IdealLoadsAirSystem,
  L2_Zone_27,
  Constant Setpoint Thermostat,
  ,
  50,
  13,
  0.0156,
  0.0077,
  NoLimit,
  ,
  ,
  NoLimit,
  ,
  ,
  ,
  ,
  ConstantSensibleHeatRatio,
  0.7,
  60,
  None,
  30,
  Sum,
  0.0025957109376,
  0.0003048,
  ,
  ,
  None,
  NoEconomizer,
  None,
  0.7,
  0.65;

HVACTemplate:Zone:IdealLoadsAirSystem,
  L2_Zone_28,
  Constant Setpoint Thermostat,
  ,
  50,
  13,
  0.0156,
  0.0077,
  NoLimit,
  ,
  ,
  NoLimit,
  ,
  ,
  ,
  ,
  ConstantSensibleHeatRatio,
  0.7,
  60,
  None,
  30,
  Sum,
  0.0025957109376,
  0.0003048,
  ,
  ,
  None,
  NoEconomizer,
  None,
  0.7,
  0.65;

HVACTemplate:Zone:IdealLoadsAirSystem,
  L2_Zone_29,
  Constant Setpoint Thermostat,
  ,
  50,
  13,
  0.0156,
  0.0077,
  NoLimit,
  ,
  ,
  NoLimit,
  ,
  ,
  ,
  ,
  ConstantSensibleHeatRatio,
  0.7,
  60,
  None,
  30,
  Sum,
  0.0025957109376,
  0.0003048,
  ,
  ,
  None,
  NoEconomizer,
  None,
  0.7,
  0.65;

HVACTemplate:Zone:IdealLoadsAirSystem,
  L2_Zone_30,
  Constant Setpoint Thermostat,
  ,
  50,
  13,
  0.0156,
  0.0077,
  NoLimit,
  ,
  ,
  NoLimit,
  ,
  ,
  ,
  ,
  ConstantSensibleHeatRatio,
  0.7,
  60,
  None,
  30,
  Sum,
  0.0025957109376,
  0.0003048,
  ,
  ,
  None,
  NoEconomizer,
  None,
  0.7,
  0.65;

HVACTemplate:Zone:IdealLoadsAirSystem,
  L2_Zone_31,
  Constant Setpoint Thermostat,
  ,
  50,
  13,
  0.0156,
  0.0077,
  NoLimit,
  ,
  ,
  NoLimit,
  ,
  ,
  ,
  ,
  ConstantSensibleHeatRatio,
  0.7,
  60,
  None,
  30,
  Sum,
  0.0025957109376,
  0.0003048,
  ,
  ,
  None,
  NoEconomizer,
  None,
  0.7,
  0.65;

HVACTemplate:Zone:IdealLoadsAirSystem,
  L2_Zone_32,
  Constant Setpoint Thermostat,
  ,
  50,
  13,
  0.0156,
  0.0077,
  NoLimit,
  ,
  ,
  NoLimit,
  ,
  ,
  ,
  ,
  ConstantSensibleHeatRatio,
  0.7,
  60,
  None,
  30,
  Sum,
  0.0025957109376,
  0.0003048,
  ,
  ,
  None,
  NoEconomizer,
  None,
  0.7,
  0.65;

HVACTemplate:Zone:IdealLoadsAirSystem,
  L2_Zone_34,
  Constant Setpoint Thermostat,
  ,
  50,
  13,
  0.0156,
  0.0077,
  NoLimit,
  ,
  ,
  NoLimit,
  ,
  ,
  ,
  ,
  ConstantSensibleHeatRatio,
  0.7,
  60,
  None,
  30,
  Sum,
  0.0025957109376,
  0.0003048,
  ,
  ,
  None,
  NoEconomizer,
  None,
  0.7,
  0.65;

HVACTemplate:Zone:IdealLoadsAirSystem,
  L2_Zone_35,
  Constant Setpoint Thermostat,
  ,
  50,
  13,
  0.0156,
  0.0077,
  NoLimit,
  ,
  ,
  NoLimit,
  ,
  ,
  ,
  ,
  ConstantSensibleHeatRatio,
  0.7,
  60,
  None,
  30,
  Sum,
  0.0025957109376,
  0.0003048,
  ,
  ,
  None,
  NoEconomizer,
  None,
  0.7,
  0.65;

HVACTemplate:Zone:IdealLoadsAirSystem,
  L2_Zone_36,
  Constant Setpoint Thermostat,
  ,
  50,
  13,
  0.0156,
  0.0077,
  NoLimit,
  ,
  ,
  NoLimit,
  ,
  ,
  ,
  ,
  ConstantSensibleHeatRatio,
  0.7,
  60,
  None,
  30,
  Sum,
  0.0025957109376,
  0.0003048,
  ,
  ,
  None,
  NoEconomizer,
  None,
  0.7,
  0.65;

HVACTemplate:Zone:IdealLoadsAirSystem,
  L2_Zone_37,
  Constant Setpoint Thermostat,
  ,
  50,
  13,
  0.0156,
  0.0077,
  NoLimit,
  ,
  ,
  NoLimit,
  ,
  ,
  ,
  ,
  ConstantSensibleHeatRatio,
  0.7,
  60,
  None,
  30,
  Sum,
  0.0025957109376,
  0.0003048,
  ,
  ,
  None,
  NoEconomizer,
  None,
  0.7,
  0.65;

HVACTemplate:Zone:IdealLoadsAirSystem,
  L2_Zone_38,
  Constant Setpoint Thermostat,
  ,
  50,
  13,
  0.0156,
  0.0077,
  NoLimit,
  ,
  ,
  NoLimit,
  ,
  ,
  ,
  ,
  ConstantSensibleHeatRatio,
  0.7,
  60,
  None,
  30,
  Sum,
  0.0025957109376,
  0.0003048,
  ,
  ,
  None,
  NoEconomizer,
  None,
  0.7,
  0.65;

HVACTemplate:Zone:IdealLoadsAirSystem,
  L2_Zone_39,
  Constant Setpoint Thermostat,
  ,
  50,
  13,
  0.0156,
  0.0077,
  NoLimit,
  ,
  ,
  NoLimit,
  ,
  ,
  ,
  ,
  ConstantSensibleHeatRatio,
  0.7,
  60,
  None,
  30,
  Sum,
  0.0025957109376,
  0.0003048,
  ,
  ,
  None,
  NoEconomizer,
  None,
  0.7,
  0.65;

HVACTemplate:Zone:IdealLoadsAirSystem,
  L2_Zone_40,
  Constant Setpoint Thermostat,
  ,
  50,
  13,
  0.0156,
  0.0077,
  NoLimit,
  ,
  ,
  NoLimit,
  ,
  ,
  ,
  ,
  ConstantSensibleHeatRatio,
  0.7,
  60,
  None,
  30,
  Sum,
  0.0025957109376,
  0.0003048,
  ,
  ,
  None,
  NoEconomizer,
  None,
  0.7,
  0.65;

HVACTemplate:Zone:IdealLoadsAirSystem,
  L2_Zone_42,
  Constant Setpoint Thermostat,
  ,
  50,
  13,
  0.0156,
  0.0077,
  NoLimit,
  ,
  ,
  NoLimit,
  ,
  ,
  ,
  ,
  ConstantSensibleHeatRatio,
  0.7,
  60,
  None,
  30,
  Sum,
  0.0025957109376,
  0.0003048,
  ,
  ,
  None,
  NoEconomizer,
  None,
  0.7,
  0.65;

HVACTemplate:Zone:IdealLoadsAirSystem,
  L2_Zone_43,
  Constant Setpoint Thermostat,
  ,
  50,
  13,
  0.0156,
  0.0077,
  NoLimit,
  ,
  ,
  NoLimit,
  ,
  ,
  ,
  ,
  ConstantSensibleHeatRatio,
  0.7,
  60,
  None,
  30,
  Sum,
  0.0025957109376,
  0.0003048,
  ,
  ,
  None,
  NoEconomizer,
  None,
  0.7,
  0.65;

HVACTemplate:Zone:IdealLoadsAirSystem,
  L2_Zone_44,
  Constant Setpoint Thermostat,
  ,
  50,
  13,
  0.0156,
  0.0077,
  NoLimit,
  ,
  ,
  NoLimit,
  ,
  ,
  ,
  ,
  ConstantSensibleHeatRatio,
  0.7,
  60,
  None,
  30,
  Sum,
  0.0025957109376,
  0.0003048,
  ,
  ,
  None,
  NoEconomizer,
  None,
  0.7,
  0.65;

HVACTemplate:Zone:IdealLoadsAirSystem,
  L3_Zone_45,
  Constant Setpoint Thermostat,
  ,
  50,
  13,
  0.0156,
  0.0077,
  NoLimit,
  ,
  ,
  NoLimit,
  ,
  ,
  ,
  ,
  ConstantSensibleHeatRatio,
  0.7,
  60,
  None,
  30,
  Sum,
  0.0025957109376,
  0.0003048,
  ,
  ,
  None,
  NoEconomizer,
  None,
  0.7,
  0.65;

HVACTemplate:Zone:IdealLoadsAirSystem,
  L3_Zone_46,
  Constant Setpoint Thermostat,
  ,
  50,
  13,
  0.0156,
  0.0077,
  NoLimit,
  ,
  ,
  NoLimit,
  ,
  ,
  ,
  ,
  ConstantSensibleHeatRatio,
  0.7,
  60,
  None,
  30,
  Sum,
  0.0025957109376,
  0.0003048,
  ,
  ,
  None,
  NoEconomizer,
  None,
  0.7,
  0.65;

HVACTemplate:Zone:IdealLoadsAirSystem,
  L3_Zone_47,
  Constant Setpoint Thermostat,
  ,
  50,
  13,
  0.0156,
  0.0077,
  NoLimit,
  ,
  ,
  NoLimit,
  ,
  ,
  ,
  ,
  ConstantSensibleHeatRatio,
  0.7,
  60,
  None,
  30,
  Sum,
  0.0025957109376,
  0.0003048,
  ,
  ,
  None,
  NoEconomizer,
  None,
  0.7,
  0.65;

HVACTemplate:Zone:IdealLoadsAirSystem,
  L3_Zone_49,
  Constant Setpoint Thermostat,
  ,
  50,
  13,
  0.0156,
  0.0077,
  NoLimit,
  ,
  ,
  NoLimit,
  ,
  ,
  ,
  ,
  ConstantSensibleHeatRatio,
  0.7,
  60,
  None,
  30,
  Sum,
  0.0025957109376,
  0.0003048,
  ,
  ,
  None,
  NoEconomizer,
  None,
  0.7,
  0.65;

HVACTemplate:Zone:IdealLoadsAirSystem,
  L3_Zone_50,
  Constant Setpoint Thermostat,
  ,
  50,
  13,
  0.0156,
  0.0077,
  NoLimit,
  ,
  ,
  NoLimit,
  ,
  ,
  ,
  ,
  ConstantSensibleHeatRatio,
  0.7,
  60,
  None,
  30,
  Sum,
  0.0025957109376,
  0.0003048,
  ,
  ,
  None,
  NoEconomizer,
  None,
  0.7,
  0.65;

HVACTemplate:Zone:IdealLoadsAirSystem,
  L3_Zone_51,
  Constant Setpoint Thermostat,
  ,
  50,
  13,
  0.0156,
  0.0077,
  NoLimit,
  ,
  ,
  NoLimit,
  ,
  ,
  ,
  ,
  ConstantSensibleHeatRatio,
  0.7,
  60,
  None,
  30,
  Sum,
  0.0025957109376,
  0.0003048,
  ,
  ,
  None,
  NoEconomizer,
  None,
  0.7,
  0.65;

HVACTemplate:Zone:IdealLoadsAirSystem,
  L3_Zone_52,
  Constant Setpoint Thermostat,
  ,
  50,
  13,
  0.0156,
  0.0077,
  NoLimit,
  ,
  ,
  NoLimit,
  ,
  ,
  ,
  ,
  ConstantSensibleHeatRatio,
  0.7,
  60,
  None,
  30,
  Sum,
  0.0025957109376,
  0.0003048,
  ,
  ,
  None,
  NoEconomizer,
  None,
  0.7,
  0.65;

HVACTemplate:Zone:IdealLoadsAirSystem,
  L3_Zone_53,
  Constant Setpoint Thermostat,
  ,
  50,
  13,
  0.0156,
  0.0077,
  NoLimit,
  ,
  ,
  NoLimit,
  ,
  ,
  ,
  ,
  ConstantSensibleHeatRatio,
  0.7,
  60,
  None,
  30,
  Sum,
  0.0025957109376,
  0.0003048,
  ,
  ,
  None,
  NoEconomizer,
  None,
  0.7,
  0.65;

HVACTemplate:Zone:IdealLoadsAirSystem,
  L3_Zone_54,
  Constant Setpoint Thermostat,
  ,
  50,
  13,
  0.0156,
  0.0077,
  NoLimit,
  ,
  ,
  NoLimit,
  ,
  ,
  ,
  ,
  ConstantSensibleHeatRatio,
  0.7,
  60,
  None,
  30,
  Sum,
  0.0025957109376,
  0.0003048,
  ,
  ,
  None,
  NoEconomizer,
  None,
  0.7,
  0.65;

HVACTemplate:Zone:IdealLoadsAirSystem,
  L3_Zone_55,
  Constant Setpoint Thermostat,
  ,
  50,
  13,
  0.0156,
  0.0077,
  NoLimit,
  ,
  ,
  NoLimit,
  ,
  ,
  ,
  ,
  ConstantSensibleHeatRatio,
  0.7,
  60,
  None,
  30,
  Sum,
  0.0025957109376,
  0.0003048,
  ,
  ,
  None,
  NoEconomizer,
  None,
  0.7,
  0.65;

HVACTemplate:Zone:IdealLoadsAirSystem,
  L3_Zone_56,
  Constant Setpoint Thermostat,
  ,
  50,
  13,
  0.0156,
  0.0077,
  NoLimit,
  ,
  ,
  NoLimit,
  ,
  ,
  ,
  ,
  ConstantSensibleHeatRatio,
  0.7,
  60,
  None,
  30,
  Sum,
  0.0025957109376,
  0.0003048,
  ,
  ,
  None,
  NoEconomizer,
  None,
  0.7,
  0.65;

HVACTemplate:Zone:IdealLoadsAirSystem,
  L3_Zone_57,
  Constant Setpoint Thermostat,
  ,
  50,
  13,
  0.0156,
  0.0077,
  NoLimit,
  ,
  ,
  NoLimit,
  ,
  ,
  ,
  ,
  ConstantSensibleHeatRatio,
  0.7,
  60,
  None,
  30,
  Sum,
  0.0025957109376,
  0.0003048,
  ,
  ,
  None,
  NoEconomizer,
  None,
  0.7,
  0.65;

HVACTemplate:Zone:IdealLoadsAirSystem,
  L4_Zone_58,
  Constant Setpoint Thermostat,
  ,
  50,
  13,
  0.0156,
  0.0077,
  NoLimit,
  ,
  ,
  NoLimit,
  ,
  ,
  ,
  ,
  ConstantSensibleHeatRatio,
  0.7,
  60,
  None,
  30,
  Sum,
  0.0025957109376,
  0.0003048,
  ,
  ,
  None,
  NoEconomizer,
  None,
  0.7,
  0.65;

HVACTemplate:Zone:IdealLoadsAirSystem,
  L4_Zone_60,
  Constant Setpoint Thermostat,
  ,
  50,
  13,
  0.0156,
  0.0077,
  NoLimit,
  ,
  ,
  NoLimit,
  ,
  ,
  ,
  ,
  ConstantSensibleHeatRatio,
  0.7,
  60,
  None,
  30,
  Sum,
  0.0025957109376,
  0.0003048,
  ,
  ,
  None,
  NoEconomizer,
  None,
  0.7,
  0.65;

HVACTemplate:Zone:IdealLoadsAirSystem,
  L4_Zone_61,
  Constant Setpoint Thermostat,
  ,
  50,
  13,
  0.0156,
  0.0077,
  NoLimit,
  ,
  ,
  NoLimit,
  ,
  ,
  ,
  ,
  ConstantSensibleHeatRatio,
  0.7,
  60,
  None,
  30,
  Sum,
  0.0025957109376,
  0.0003048,
  ,
  ,
  None,
  NoEconomizer,
  None,
  0.7,
  0.65;

HVACTemplate:Zone:IdealLoadsAirSystem,
  L2_Zone_26,
  Constant Setpoint Thermostat,
  ,
  50,
  13,
  0.0156,
  0.0077,
  NoLimit,
  ,
  ,
  NoLimit,
  ,
  ,
  ,
  ,
  ConstantSensibleHeatRatio,
  0.7,
  60,
  None,
  30,
  Sum,
  0.0025957109376,
  0.0003048,
  ,
  ,
  None,
  NoEconomizer,
  None,
  0.7,
  0.65;

Material,
  BIM2BEM_F08 Metal surface,
  Smooth,
  0.0008,
  45.28,
  7824,
  500;

Material:NoMass,
  BIM2BEM_Nonres_Exterior_Wall_Insulation_grd,
  MediumSmooth,
  1.43106645212085,
  0.9,
  0.7,
  0.7;

Material,
  BIM2BEM_G01 16mm gypsum board,
  MediumSmooth,
  0.0159,
  0.16,
  800,
  1090;

Construction,
  BIM2BEM_nonres_ext_wall,
  BIM2BEM_F08 Metal surface,
  BIM2BEM_Nonres_Exterior_Wall_Insulation_grd,
  BIM2BEM_G01 16mm gypsum board;

Material,
  BIM2BEM_F08 Metal roof surface,
  Smooth,
  0.0008,
  45.28,
  7824,
  500,
  0.9,
  0.77;

Material:NoMass,
  BIM2BEM_Nonres_Roof_Insulation,
  MediumSmooth,
  4.15798697238419,
  0.9,
  0.7,
  0.7;

Construction,
  BIM2BEM_nonres_roof,
  BIM2BEM_F08 Metal roof surface,
  BIM2BEM_Nonres_Roof_Insulation;

Material,
  BIM2BEM_F07 25mm stucco,
  Smooth,
  0.0254,
  0.72,
  1856,
  840,
  0.9,
  0.7,
  0.7;

Material,
  BIM2BEM_Interior Wall Addi Insul,
  MediumRough,
  2.54000514892096E-08,
  4.32600013366928E-02,
  22.425834089246,
  836.800006332062,
  0.9,
  0.7,
  0.7;

Material,
  BIM2BEM_Steel Frame/Cavity,
  MediumRough,
  8.89001802122336E-02,
  8.41161885991101E-02,
  641.378854952435,
  502.080003799237,
  0.9,
  0.7,
  0.7;

Construction,
  BIM2BEM_Interior_Wall,
  BIM2BEM_F07 25mm stucco,
  BIM2BEM_G01 16mm gypsum board,
  BIM2BEM_Interior Wall Addi Insul,
  BIM2BEM_Steel Frame/Cavity,
  BIM2BEM_G01 16mm gypsum board;

Material,
  BIM2BEM_100mm Normalweight concrete floor,
  MediumRough,
  0.1016,
  2.31,
  2322,
  832;

Material:NoMass,
  BIM2BEM_CP02 CARPET PAD,
  VeryRough,
  0.21648,
  0.9,
  0.7,
  0.8;

Construction,
  BIM2BEM_int_slab_floor,
  BIM2BEM_100mm Normalweight concrete floor,
  BIM2BEM_CP02 CARPET PAD;

Construction,
  BIM2BEM_int_slab_ceiling,
  BIM2BEM_CP02 CARPET PAD,
  BIM2BEM_100mm Normalweight concrete floor;

WindowMaterial:SimpleGlazingSystem,
  BIM2BEM_IFC_Window_SimpleGlazing,
  5.5364,
  0.86,
  0.9;

Construction,
  BIM2BEM_IFC_Window_Construction,
  BIM2BEM_IFC_Window_SimpleGlazing;

Material:NoMass,
  BIM2BEM_Opaque Door panel_con,
  MediumRough,
  0.475973498005059,
  0.9,
  0.7,
  0.7;

Construction,
  BIM2BEM_IFCIntent_Door,
  BIM2BEM_Opaque Door panel_con;

Schedule:Compact,
  BLDG_OCC_SCH,
  Fraction,
  Through: 12/31,
  For: Weekdays Saturday WinterDesignDay,
  Until: 06:00,
  0.00,
  Until: 07:00,
  0.11,
  Until: 08:00,
  0.21,
  Until: 12:00,
  1.00,
  Until: 13:00,
  0.53,
  Until: 17:00,
  1.00,
  Until: 18:00,
  0.32,
  Until: 24:00,
  0.00,
  For: SummerDesignDay,
  Until: 06:00,
  0.000000001,
  Until: 07:00,
  0.11,
  Until: 08:00,
  0.21,
  Until: 12:00,
  1.00,
  Until: 13:00,
  0.53,
  Until: 17:00,
  1.00,
  Until: 18:00,
  0.32,
  Until: 24:00,
  0.000000001,
  For: Sunday Holidays AllOtherDays,
  Until: 24:00,
  0.0;

SCHEDULE:COMPACT,
  ltg_sch_bulk_storage,
  Fraction,
  Through: 12/31,
  For: SummerDesignDay,
  Until: 24:00,
  1,
  For: WinterDesignDay,
  Until: 24:00,
  0,
  For: Weekdays,
  Until: 7:00,
  0.04375,
  Until: 8:00,
  0.2625,
  Until: 9:00,
  0.32812,
  Until: 16:00,
  0.37188,
  Until: 17:00,
  0.32812,
  Until: 18:00,
  0.2625,
  Until: 24:00,
  0.04375,
  For: Saturday,
  Until: 7:00,
  0.04375,
  Until: 8:00,
  0.2625,
  Until: 9:00,
  0.32812,
  Until: 16:00,
  0.37188,
  Until: 17:00,
  0.32812,
  Until: 18:00,
  0.2625,
  Until: 24:00,
  0.04375,
  For: AllOtherDays,
  Until: 24:00,
  0.04375;

Schedule:Compact,
  Bulk Storage Plug Schedule,
  Fraction,
  Through: 12/31,
  For: Sunday Holidays,
  Until: 24:00,
  0,
  For: Weekdays Saturday AllOtherDays,
  Until: 08:00,
  0.25,
  Until: 12:00,
  1.00,
  Until: 13:00,
  0.25,
  Until: 17:00,
  1.00,
  Until: 24:00,
  0.25;

Schedule:Compact,
  Bulk Storage Infil_Base Schedule,
  Any Number,
  Through: 12/31,
  For: Sunday Holidays,
  Until: 24:00,
  0.765,
  For: SummerDesignDay WinterDesignDay,
  Until: 24:00,
  1.0,
  For: Weekdays Saturday AllOtherDays,
  Until: 08:00,
  0.765,
  Until: 12:00,
  1,
  Until: 13:00,
  0.765,
  Until: 17:00,
  1,
  Until: 24:00,
  0.765;

Schedule:Compact,
  ZONE3 BULK STORAGE Activity Schedule,
  Any Number,
  Through: 12/31,
  For: AllDays,
  Until: 24:00,
  131.85;

People,
  BIM2BEM_L1_Zone_1_People,
  L1_Zone_1,
  BLDG_OCC_SCH,
  Area/Person,
  ,
  ,
  10.0,
  0.3,
  autocalculate,
  ZONE3 BULK STORAGE Activity Schedule,
  ,
  ,
  ZoneAveraged;

Lights,
  BIM2BEM_L1_Zone_1_Lights,
  L1_Zone_1,
  ltg_sch_bulk_storage,
  Watts/Area,
  ,
  18.298647708406527,
  ,
  0,
  0.42,
  0.18,
  1,
  LightsWired,
  No;

ElectricEquipment,
  BIM2BEM_L1_Zone_1_Equipment,
  L1_Zone_1,
  Bulk Storage Plug Schedule,
  Watts/Area,
  ,
  10.763910416709722,
  ,
  ,
  ,
  ,
  MiscPlug;

ZoneInfiltration:DesignFlowRate,
  BIM2BEM_L1_Zone_1_Infiltration,
  L1_Zone_1,
  Bulk Storage Infil_Base Schedule,
  Flow/ExteriorWallArea,
  ,
  ,
  0.00146921915640324,
  ,
  0,
  0,
  0.224,
  0;

People,
  BIM2BEM_L1_Zone_2_People,
  L1_Zone_2,
  BLDG_OCC_SCH,
  Area/Person,
  ,
  ,
  10.0,
  0.3,
  autocalculate,
  ZONE3 BULK STORAGE Activity Schedule,
  ,
  ,
  ZoneAveraged;

Lights,
  BIM2BEM_L1_Zone_2_Lights,
  L1_Zone_2,
  ltg_sch_bulk_storage,
  Watts/Area,
  ,
  18.298647708406527,
  ,
  0,
  0.42,
  0.18,
  1,
  LightsWired,
  No;

ElectricEquipment,
  BIM2BEM_L1_Zone_2_Equipment,
  L1_Zone_2,
  Bulk Storage Plug Schedule,
  Watts/Area,
  ,
  10.763910416709722,
  ,
  ,
  ,
  ,
  MiscPlug;

ZoneInfiltration:DesignFlowRate,
  BIM2BEM_L1_Zone_2_Infiltration,
  L1_Zone_2,
  Bulk Storage Infil_Base Schedule,
  Flow/ExteriorWallArea,
  ,
  ,
  0.00146921915640324,
  ,
  0,
  0,
  0.224,
  0;

People,
  BIM2BEM_L1_Zone_3_People,
  L1_Zone_3,
  BLDG_OCC_SCH,
  Area/Person,
  ,
  ,
  10.0,
  0.3,
  autocalculate,
  ZONE3 BULK STORAGE Activity Schedule,
  ,
  ,
  ZoneAveraged;

Lights,
  BIM2BEM_L1_Zone_3_Lights,
  L1_Zone_3,
  ltg_sch_bulk_storage,
  Watts/Area,
  ,
  18.298647708406527,
  ,
  0,
  0.42,
  0.18,
  1,
  LightsWired,
  No;

ElectricEquipment,
  BIM2BEM_L1_Zone_3_Equipment,
  L1_Zone_3,
  Bulk Storage Plug Schedule,
  Watts/Area,
  ,
  10.763910416709722,
  ,
  ,
  ,
  ,
  MiscPlug;

ZoneInfiltration:DesignFlowRate,
  BIM2BEM_L1_Zone_3_Infiltration,
  L1_Zone_3,
  Bulk Storage Infil_Base Schedule,
  Flow/ExteriorWallArea,
  ,
  ,
  0.00146921915640324,
  ,
  0,
  0,
  0.224,
  0;

People,
  BIM2BEM_L1_Zone_4_People,
  L1_Zone_4,
  BLDG_OCC_SCH,
  Area/Person,
  ,
  ,
  10.0,
  0.3,
  autocalculate,
  ZONE3 BULK STORAGE Activity Schedule,
  ,
  ,
  ZoneAveraged;

Lights,
  BIM2BEM_L1_Zone_4_Lights,
  L1_Zone_4,
  ltg_sch_bulk_storage,
  Watts/Area,
  ,
  18.298647708406527,
  ,
  0,
  0.42,
  0.18,
  1,
  LightsWired,
  No;

ElectricEquipment,
  BIM2BEM_L1_Zone_4_Equipment,
  L1_Zone_4,
  Bulk Storage Plug Schedule,
  Watts/Area,
  ,
  10.763910416709722,
  ,
  ,
  ,
  ,
  MiscPlug;

ZoneInfiltration:DesignFlowRate,
  BIM2BEM_L1_Zone_4_Infiltration,
  L1_Zone_4,
  Bulk Storage Infil_Base Schedule,
  Flow/ExteriorWallArea,
  ,
  ,
  0.00146921915640324,
  ,
  0,
  0,
  0.224,
  0;

People,
  BIM2BEM_L1_Zone_5_People,
  L1_Zone_5,
  BLDG_OCC_SCH,
  Area/Person,
  ,
  ,
  10.0,
  0.3,
  autocalculate,
  ZONE3 BULK STORAGE Activity Schedule,
  ,
  ,
  ZoneAveraged;

Lights,
  BIM2BEM_L1_Zone_5_Lights,
  L1_Zone_5,
  ltg_sch_bulk_storage,
  Watts/Area,
  ,
  18.298647708406527,
  ,
  0,
  0.42,
  0.18,
  1,
  LightsWired,
  No;

ElectricEquipment,
  BIM2BEM_L1_Zone_5_Equipment,
  L1_Zone_5,
  Bulk Storage Plug Schedule,
  Watts/Area,
  ,
  10.763910416709722,
  ,
  ,
  ,
  ,
  MiscPlug;

ZoneInfiltration:DesignFlowRate,
  BIM2BEM_L1_Zone_5_Infiltration,
  L1_Zone_5,
  Bulk Storage Infil_Base Schedule,
  Flow/ExteriorWallArea,
  ,
  ,
  0.00146921915640324,
  ,
  0,
  0,
  0.224,
  0;

People,
  BIM2BEM_L1_Zone_6_People,
  L1_Zone_6,
  BLDG_OCC_SCH,
  Area/Person,
  ,
  ,
  10.0,
  0.3,
  autocalculate,
  ZONE3 BULK STORAGE Activity Schedule,
  ,
  ,
  ZoneAveraged;

Lights,
  BIM2BEM_L1_Zone_6_Lights,
  L1_Zone_6,
  ltg_sch_bulk_storage,
  Watts/Area,
  ,
  18.298647708406527,
  ,
  0,
  0.42,
  0.18,
  1,
  LightsWired,
  No;

ElectricEquipment,
  BIM2BEM_L1_Zone_6_Equipment,
  L1_Zone_6,
  Bulk Storage Plug Schedule,
  Watts/Area,
  ,
  10.763910416709722,
  ,
  ,
  ,
  ,
  MiscPlug;

ZoneInfiltration:DesignFlowRate,
  BIM2BEM_L1_Zone_6_Infiltration,
  L1_Zone_6,
  Bulk Storage Infil_Base Schedule,
  Flow/ExteriorWallArea,
  ,
  ,
  0.00146921915640324,
  ,
  0,
  0,
  0.224,
  0;

People,
  BIM2BEM_L1_Zone_7_People,
  L1_Zone_7,
  BLDG_OCC_SCH,
  Area/Person,
  ,
  ,
  10.0,
  0.3,
  autocalculate,
  ZONE3 BULK STORAGE Activity Schedule,
  ,
  ,
  ZoneAveraged;

Lights,
  BIM2BEM_L1_Zone_7_Lights,
  L1_Zone_7,
  ltg_sch_bulk_storage,
  Watts/Area,
  ,
  18.298647708406527,
  ,
  0,
  0.42,
  0.18,
  1,
  LightsWired,
  No;

ElectricEquipment,
  BIM2BEM_L1_Zone_7_Equipment,
  L1_Zone_7,
  Bulk Storage Plug Schedule,
  Watts/Area,
  ,
  10.763910416709722,
  ,
  ,
  ,
  ,
  MiscPlug;

ZoneInfiltration:DesignFlowRate,
  BIM2BEM_L1_Zone_7_Infiltration,
  L1_Zone_7,
  Bulk Storage Infil_Base Schedule,
  Flow/ExteriorWallArea,
  ,
  ,
  0.00146921915640324,
  ,
  0,
  0,
  0.224,
  0;

People,
  BIM2BEM_L1_Zone_8_People,
  L1_Zone_8,
  BLDG_OCC_SCH,
  Area/Person,
  ,
  ,
  10.0,
  0.3,
  autocalculate,
  ZONE3 BULK STORAGE Activity Schedule,
  ,
  ,
  ZoneAveraged;

Lights,
  BIM2BEM_L1_Zone_8_Lights,
  L1_Zone_8,
  ltg_sch_bulk_storage,
  Watts/Area,
  ,
  18.298647708406527,
  ,
  0,
  0.42,
  0.18,
  1,
  LightsWired,
  No;

ElectricEquipment,
  BIM2BEM_L1_Zone_8_Equipment,
  L1_Zone_8,
  Bulk Storage Plug Schedule,
  Watts/Area,
  ,
  10.763910416709722,
  ,
  ,
  ,
  ,
  MiscPlug;

ZoneInfiltration:DesignFlowRate,
  BIM2BEM_L1_Zone_8_Infiltration,
  L1_Zone_8,
  Bulk Storage Infil_Base Schedule,
  Flow/ExteriorWallArea,
  ,
  ,
  0.00146921915640324,
  ,
  0,
  0,
  0.224,
  0;

People,
  BIM2BEM_L1_Zone_9_People,
  L1_Zone_9,
  BLDG_OCC_SCH,
  Area/Person,
  ,
  ,
  10.0,
  0.3,
  autocalculate,
  ZONE3 BULK STORAGE Activity Schedule,
  ,
  ,
  ZoneAveraged;

Lights,
  BIM2BEM_L1_Zone_9_Lights,
  L1_Zone_9,
  ltg_sch_bulk_storage,
  Watts/Area,
  ,
  18.298647708406527,
  ,
  0,
  0.42,
  0.18,
  1,
  LightsWired,
  No;

ElectricEquipment,
  BIM2BEM_L1_Zone_9_Equipment,
  L1_Zone_9,
  Bulk Storage Plug Schedule,
  Watts/Area,
  ,
  10.763910416709722,
  ,
  ,
  ,
  ,
  MiscPlug;

ZoneInfiltration:DesignFlowRate,
  BIM2BEM_L1_Zone_9_Infiltration,
  L1_Zone_9,
  Bulk Storage Infil_Base Schedule,
  Flow/ExteriorWallArea,
  ,
  ,
  0.00146921915640324,
  ,
  0,
  0,
  0.224,
  0;

People,
  BIM2BEM_L1_Zone_10_People,
  L1_Zone_10,
  BLDG_OCC_SCH,
  Area/Person,
  ,
  ,
  10.0,
  0.3,
  autocalculate,
  ZONE3 BULK STORAGE Activity Schedule,
  ,
  ,
  ZoneAveraged;

Lights,
  BIM2BEM_L1_Zone_10_Lights,
  L1_Zone_10,
  ltg_sch_bulk_storage,
  Watts/Area,
  ,
  18.298647708406527,
  ,
  0,
  0.42,
  0.18,
  1,
  LightsWired,
  No;

ElectricEquipment,
  BIM2BEM_L1_Zone_10_Equipment,
  L1_Zone_10,
  Bulk Storage Plug Schedule,
  Watts/Area,
  ,
  10.763910416709722,
  ,
  ,
  ,
  ,
  MiscPlug;

ZoneInfiltration:DesignFlowRate,
  BIM2BEM_L1_Zone_10_Infiltration,
  L1_Zone_10,
  Bulk Storage Infil_Base Schedule,
  Flow/ExteriorWallArea,
  ,
  ,
  0.00146921915640324,
  ,
  0,
  0,
  0.224,
  0;

People,
  BIM2BEM_L1_Zone_11_People,
  L1_Zone_11,
  BLDG_OCC_SCH,
  Area/Person,
  ,
  ,
  10.0,
  0.3,
  autocalculate,
  ZONE3 BULK STORAGE Activity Schedule,
  ,
  ,
  ZoneAveraged;

Lights,
  BIM2BEM_L1_Zone_11_Lights,
  L1_Zone_11,
  ltg_sch_bulk_storage,
  Watts/Area,
  ,
  18.298647708406527,
  ,
  0,
  0.42,
  0.18,
  1,
  LightsWired,
  No;

ElectricEquipment,
  BIM2BEM_L1_Zone_11_Equipment,
  L1_Zone_11,
  Bulk Storage Plug Schedule,
  Watts/Area,
  ,
  10.763910416709722,
  ,
  ,
  ,
  ,
  MiscPlug;

ZoneInfiltration:DesignFlowRate,
  BIM2BEM_L1_Zone_11_Infiltration,
  L1_Zone_11,
  Bulk Storage Infil_Base Schedule,
  Flow/ExteriorWallArea,
  ,
  ,
  0.00146921915640324,
  ,
  0,
  0,
  0.224,
  0;

People,
  BIM2BEM_L1_Zone_19_People,
  L1_Zone_19,
  BLDG_OCC_SCH,
  Area/Person,
  ,
  ,
  10.0,
  0.3,
  autocalculate,
  ZONE3 BULK STORAGE Activity Schedule,
  ,
  ,
  ZoneAveraged;

Lights,
  BIM2BEM_L1_Zone_19_Lights,
  L1_Zone_19,
  ltg_sch_bulk_storage,
  Watts/Area,
  ,
  18.298647708406527,
  ,
  0,
  0.42,
  0.18,
  1,
  LightsWired,
  No;

ElectricEquipment,
  BIM2BEM_L1_Zone_19_Equipment,
  L1_Zone_19,
  Bulk Storage Plug Schedule,
  Watts/Area,
  ,
  10.763910416709722,
  ,
  ,
  ,
  ,
  MiscPlug;

ZoneInfiltration:DesignFlowRate,
  BIM2BEM_L1_Zone_19_Infiltration,
  L1_Zone_19,
  Bulk Storage Infil_Base Schedule,
  Flow/ExteriorWallArea,
  ,
  ,
  0.00146921915640324,
  ,
  0,
  0,
  0.224,
  0;

People,
  BIM2BEM_L1_Zone_13_People,
  L1_Zone_13,
  BLDG_OCC_SCH,
  Area/Person,
  ,
  ,
  10.0,
  0.3,
  autocalculate,
  ZONE3 BULK STORAGE Activity Schedule,
  ,
  ,
  ZoneAveraged;

Lights,
  BIM2BEM_L1_Zone_13_Lights,
  L1_Zone_13,
  ltg_sch_bulk_storage,
  Watts/Area,
  ,
  18.298647708406527,
  ,
  0,
  0.42,
  0.18,
  1,
  LightsWired,
  No;

ElectricEquipment,
  BIM2BEM_L1_Zone_13_Equipment,
  L1_Zone_13,
  Bulk Storage Plug Schedule,
  Watts/Area,
  ,
  10.763910416709722,
  ,
  ,
  ,
  ,
  MiscPlug;

ZoneInfiltration:DesignFlowRate,
  BIM2BEM_L1_Zone_13_Infiltration,
  L1_Zone_13,
  Bulk Storage Infil_Base Schedule,
  Flow/ExteriorWallArea,
  ,
  ,
  0.00146921915640324,
  ,
  0,
  0,
  0.224,
  0;

People,
  BIM2BEM_L1_Zone_14_People,
  L1_Zone_14,
  BLDG_OCC_SCH,
  Area/Person,
  ,
  ,
  10.0,
  0.3,
  autocalculate,
  ZONE3 BULK STORAGE Activity Schedule,
  ,
  ,
  ZoneAveraged;

Lights,
  BIM2BEM_L1_Zone_14_Lights,
  L1_Zone_14,
  ltg_sch_bulk_storage,
  Watts/Area,
  ,
  18.298647708406527,
  ,
  0,
  0.42,
  0.18,
  1,
  LightsWired,
  No;

ElectricEquipment,
  BIM2BEM_L1_Zone_14_Equipment,
  L1_Zone_14,
  Bulk Storage Plug Schedule,
  Watts/Area,
  ,
  10.763910416709722,
  ,
  ,
  ,
  ,
  MiscPlug;

ZoneInfiltration:DesignFlowRate,
  BIM2BEM_L1_Zone_14_Infiltration,
  L1_Zone_14,
  Bulk Storage Infil_Base Schedule,
  Flow/ExteriorWallArea,
  ,
  ,
  0.00146921915640324,
  ,
  0,
  0,
  0.224,
  0;

People,
  BIM2BEM_L1_Zone_15_People,
  L1_Zone_15,
  BLDG_OCC_SCH,
  Area/Person,
  ,
  ,
  10.0,
  0.3,
  autocalculate,
  ZONE3 BULK STORAGE Activity Schedule,
  ,
  ,
  ZoneAveraged;

Lights,
  BIM2BEM_L1_Zone_15_Lights,
  L1_Zone_15,
  ltg_sch_bulk_storage,
  Watts/Area,
  ,
  18.298647708406527,
  ,
  0,
  0.42,
  0.18,
  1,
  LightsWired,
  No;

ElectricEquipment,
  BIM2BEM_L1_Zone_15_Equipment,
  L1_Zone_15,
  Bulk Storage Plug Schedule,
  Watts/Area,
  ,
  10.763910416709722,
  ,
  ,
  ,
  ,
  MiscPlug;

ZoneInfiltration:DesignFlowRate,
  BIM2BEM_L1_Zone_15_Infiltration,
  L1_Zone_15,
  Bulk Storage Infil_Base Schedule,
  Flow/ExteriorWallArea,
  ,
  ,
  0.00146921915640324,
  ,
  0,
  0,
  0.224,
  0;

People,
  BIM2BEM_L1_Zone_16_People,
  L1_Zone_16,
  BLDG_OCC_SCH,
  Area/Person,
  ,
  ,
  10.0,
  0.3,
  autocalculate,
  ZONE3 BULK STORAGE Activity Schedule,
  ,
  ,
  ZoneAveraged;

Lights,
  BIM2BEM_L1_Zone_16_Lights,
  L1_Zone_16,
  ltg_sch_bulk_storage,
  Watts/Area,
  ,
  18.298647708406527,
  ,
  0,
  0.42,
  0.18,
  1,
  LightsWired,
  No;

ElectricEquipment,
  BIM2BEM_L1_Zone_16_Equipment,
  L1_Zone_16,
  Bulk Storage Plug Schedule,
  Watts/Area,
  ,
  10.763910416709722,
  ,
  ,
  ,
  ,
  MiscPlug;

ZoneInfiltration:DesignFlowRate,
  BIM2BEM_L1_Zone_16_Infiltration,
  L1_Zone_16,
  Bulk Storage Infil_Base Schedule,
  Flow/ExteriorWallArea,
  ,
  ,
  0.00146921915640324,
  ,
  0,
  0,
  0.224,
  0;

People,
  BIM2BEM_L1_Zone_17_People,
  L1_Zone_17,
  BLDG_OCC_SCH,
  Area/Person,
  ,
  ,
  10.0,
  0.3,
  autocalculate,
  ZONE3 BULK STORAGE Activity Schedule,
  ,
  ,
  ZoneAveraged;

Lights,
  BIM2BEM_L1_Zone_17_Lights,
  L1_Zone_17,
  ltg_sch_bulk_storage,
  Watts/Area,
  ,
  18.298647708406527,
  ,
  0,
  0.42,
  0.18,
  1,
  LightsWired,
  No;

ElectricEquipment,
  BIM2BEM_L1_Zone_17_Equipment,
  L1_Zone_17,
  Bulk Storage Plug Schedule,
  Watts/Area,
  ,
  10.763910416709722,
  ,
  ,
  ,
  ,
  MiscPlug;

ZoneInfiltration:DesignFlowRate,
  BIM2BEM_L1_Zone_17_Infiltration,
  L1_Zone_17,
  Bulk Storage Infil_Base Schedule,
  Flow/ExteriorWallArea,
  ,
  ,
  0.00146921915640324,
  ,
  0,
  0,
  0.224,
  0;

People,
  BIM2BEM_L1_Zone_18_People,
  L1_Zone_18,
  BLDG_OCC_SCH,
  Area/Person,
  ,
  ,
  10.0,
  0.3,
  autocalculate,
  ZONE3 BULK STORAGE Activity Schedule,
  ,
  ,
  ZoneAveraged;

Lights,
  BIM2BEM_L1_Zone_18_Lights,
  L1_Zone_18,
  ltg_sch_bulk_storage,
  Watts/Area,
  ,
  18.298647708406527,
  ,
  0,
  0.42,
  0.18,
  1,
  LightsWired,
  No;

ElectricEquipment,
  BIM2BEM_L1_Zone_18_Equipment,
  L1_Zone_18,
  Bulk Storage Plug Schedule,
  Watts/Area,
  ,
  10.763910416709722,
  ,
  ,
  ,
  ,
  MiscPlug;

ZoneInfiltration:DesignFlowRate,
  BIM2BEM_L1_Zone_18_Infiltration,
  L1_Zone_18,
  Bulk Storage Infil_Base Schedule,
  Flow/ExteriorWallArea,
  ,
  ,
  0.00146921915640324,
  ,
  0,
  0,
  0.224,
  0;

People,
  BIM2BEM_L1_Zone_12_People,
  L1_Zone_12,
  BLDG_OCC_SCH,
  Area/Person,
  ,
  ,
  10.0,
  0.3,
  autocalculate,
  ZONE3 BULK STORAGE Activity Schedule,
  ,
  ,
  ZoneAveraged;

Lights,
  BIM2BEM_L1_Zone_12_Lights,
  L1_Zone_12,
  ltg_sch_bulk_storage,
  Watts/Area,
  ,
  18.298647708406527,
  ,
  0,
  0.42,
  0.18,
  1,
  LightsWired,
  No;

ElectricEquipment,
  BIM2BEM_L1_Zone_12_Equipment,
  L1_Zone_12,
  Bulk Storage Plug Schedule,
  Watts/Area,
  ,
  10.763910416709722,
  ,
  ,
  ,
  ,
  MiscPlug;

ZoneInfiltration:DesignFlowRate,
  BIM2BEM_L1_Zone_12_Infiltration,
  L1_Zone_12,
  Bulk Storage Infil_Base Schedule,
  Flow/ExteriorWallArea,
  ,
  ,
  0.00146921915640324,
  ,
  0,
  0,
  0.224,
  0;

People,
  BIM2BEM_L2_Zone_20_People,
  L2_Zone_20,
  BLDG_OCC_SCH,
  Area/Person,
  ,
  ,
  10.0,
  0.3,
  autocalculate,
  ZONE3 BULK STORAGE Activity Schedule,
  ,
  ,
  ZoneAveraged;

Lights,
  BIM2BEM_L2_Zone_20_Lights,
  L2_Zone_20,
  ltg_sch_bulk_storage,
  Watts/Area,
  ,
  18.298647708406527,
  ,
  0,
  0.42,
  0.18,
  1,
  LightsWired,
  No;

ElectricEquipment,
  BIM2BEM_L2_Zone_20_Equipment,
  L2_Zone_20,
  Bulk Storage Plug Schedule,
  Watts/Area,
  ,
  10.763910416709722,
  ,
  ,
  ,
  ,
  MiscPlug;

ZoneInfiltration:DesignFlowRate,
  BIM2BEM_L2_Zone_20_Infiltration,
  L2_Zone_20,
  Bulk Storage Infil_Base Schedule,
  Flow/ExteriorWallArea,
  ,
  ,
  0.00146921915640324,
  ,
  0,
  0,
  0.224,
  0;

People,
  BIM2BEM_L2_Zone_21_People,
  L2_Zone_21,
  BLDG_OCC_SCH,
  Area/Person,
  ,
  ,
  10.0,
  0.3,
  autocalculate,
  ZONE3 BULK STORAGE Activity Schedule,
  ,
  ,
  ZoneAveraged;

Lights,
  BIM2BEM_L2_Zone_21_Lights,
  L2_Zone_21,
  ltg_sch_bulk_storage,
  Watts/Area,
  ,
  18.298647708406527,
  ,
  0,
  0.42,
  0.18,
  1,
  LightsWired,
  No;

ElectricEquipment,
  BIM2BEM_L2_Zone_21_Equipment,
  L2_Zone_21,
  Bulk Storage Plug Schedule,
  Watts/Area,
  ,
  10.763910416709722,
  ,
  ,
  ,
  ,
  MiscPlug;

ZoneInfiltration:DesignFlowRate,
  BIM2BEM_L2_Zone_21_Infiltration,
  L2_Zone_21,
  Bulk Storage Infil_Base Schedule,
  Flow/ExteriorWallArea,
  ,
  ,
  0.00146921915640324,
  ,
  0,
  0,
  0.224,
  0;

People,
  BIM2BEM_L2_Zone_22_People,
  L2_Zone_22,
  BLDG_OCC_SCH,
  Area/Person,
  ,
  ,
  10.0,
  0.3,
  autocalculate,
  ZONE3 BULK STORAGE Activity Schedule,
  ,
  ,
  ZoneAveraged;

Lights,
  BIM2BEM_L2_Zone_22_Lights,
  L2_Zone_22,
  ltg_sch_bulk_storage,
  Watts/Area,
  ,
  18.298647708406527,
  ,
  0,
  0.42,
  0.18,
  1,
  LightsWired,
  No;

ElectricEquipment,
  BIM2BEM_L2_Zone_22_Equipment,
  L2_Zone_22,
  Bulk Storage Plug Schedule,
  Watts/Area,
  ,
  10.763910416709722,
  ,
  ,
  ,
  ,
  MiscPlug;

ZoneInfiltration:DesignFlowRate,
  BIM2BEM_L2_Zone_22_Infiltration,
  L2_Zone_22,
  Bulk Storage Infil_Base Schedule,
  Flow/ExteriorWallArea,
  ,
  ,
  0.00146921915640324,
  ,
  0,
  0,
  0.224,
  0;

People,
  BIM2BEM_L2_Zone_25_People,
  L2_Zone_25,
  BLDG_OCC_SCH,
  Area/Person,
  ,
  ,
  10.0,
  0.3,
  autocalculate,
  ZONE3 BULK STORAGE Activity Schedule,
  ,
  ,
  ZoneAveraged;

Lights,
  BIM2BEM_L2_Zone_25_Lights,
  L2_Zone_25,
  ltg_sch_bulk_storage,
  Watts/Area,
  ,
  18.298647708406527,
  ,
  0,
  0.42,
  0.18,
  1,
  LightsWired,
  No;

ElectricEquipment,
  BIM2BEM_L2_Zone_25_Equipment,
  L2_Zone_25,
  Bulk Storage Plug Schedule,
  Watts/Area,
  ,
  10.763910416709722,
  ,
  ,
  ,
  ,
  MiscPlug;

ZoneInfiltration:DesignFlowRate,
  BIM2BEM_L2_Zone_25_Infiltration,
  L2_Zone_25,
  Bulk Storage Infil_Base Schedule,
  Flow/ExteriorWallArea,
  ,
  ,
  0.00146921915640324,
  ,
  0,
  0,
  0.224,
  0;

People,
  BIM2BEM_L2_Zone_24_People,
  L2_Zone_24,
  BLDG_OCC_SCH,
  Area/Person,
  ,
  ,
  10.0,
  0.3,
  autocalculate,
  ZONE3 BULK STORAGE Activity Schedule,
  ,
  ,
  ZoneAveraged;

Lights,
  BIM2BEM_L2_Zone_24_Lights,
  L2_Zone_24,
  ltg_sch_bulk_storage,
  Watts/Area,
  ,
  18.298647708406527,
  ,
  0,
  0.42,
  0.18,
  1,
  LightsWired,
  No;

ElectricEquipment,
  BIM2BEM_L2_Zone_24_Equipment,
  L2_Zone_24,
  Bulk Storage Plug Schedule,
  Watts/Area,
  ,
  10.763910416709722,
  ,
  ,
  ,
  ,
  MiscPlug;

ZoneInfiltration:DesignFlowRate,
  BIM2BEM_L2_Zone_24_Infiltration,
  L2_Zone_24,
  Bulk Storage Infil_Base Schedule,
  Flow/ExteriorWallArea,
  ,
  ,
  0.00146921915640324,
  ,
  0,
  0,
  0.224,
  0;

People,
  BIM2BEM_L2_Zone_23_People,
  L2_Zone_23,
  BLDG_OCC_SCH,
  Area/Person,
  ,
  ,
  10.0,
  0.3,
  autocalculate,
  ZONE3 BULK STORAGE Activity Schedule,
  ,
  ,
  ZoneAveraged;

Lights,
  BIM2BEM_L2_Zone_23_Lights,
  L2_Zone_23,
  ltg_sch_bulk_storage,
  Watts/Area,
  ,
  18.298647708406527,
  ,
  0,
  0.42,
  0.18,
  1,
  LightsWired,
  No;

ElectricEquipment,
  BIM2BEM_L2_Zone_23_Equipment,
  L2_Zone_23,
  Bulk Storage Plug Schedule,
  Watts/Area,
  ,
  10.763910416709722,
  ,
  ,
  ,
  ,
  MiscPlug;

ZoneInfiltration:DesignFlowRate,
  BIM2BEM_L2_Zone_23_Infiltration,
  L2_Zone_23,
  Bulk Storage Infil_Base Schedule,
  Flow/ExteriorWallArea,
  ,
  ,
  0.00146921915640324,
  ,
  0,
  0,
  0.224,
  0;

People,
  BIM2BEM_L2_Zone_27_People,
  L2_Zone_27,
  BLDG_OCC_SCH,
  Area/Person,
  ,
  ,
  10.0,
  0.3,
  autocalculate,
  ZONE3 BULK STORAGE Activity Schedule,
  ,
  ,
  ZoneAveraged;

Lights,
  BIM2BEM_L2_Zone_27_Lights,
  L2_Zone_27,
  ltg_sch_bulk_storage,
  Watts/Area,
  ,
  18.298647708406527,
  ,
  0,
  0.42,
  0.18,
  1,
  LightsWired,
  No;

ElectricEquipment,
  BIM2BEM_L2_Zone_27_Equipment,
  L2_Zone_27,
  Bulk Storage Plug Schedule,
  Watts/Area,
  ,
  10.763910416709722,
  ,
  ,
  ,
  ,
  MiscPlug;

ZoneInfiltration:DesignFlowRate,
  BIM2BEM_L2_Zone_27_Infiltration,
  L2_Zone_27,
  Bulk Storage Infil_Base Schedule,
  Flow/ExteriorWallArea,
  ,
  ,
  0.00146921915640324,
  ,
  0,
  0,
  0.224,
  0;

People,
  BIM2BEM_L2_Zone_28_People,
  L2_Zone_28,
  BLDG_OCC_SCH,
  Area/Person,
  ,
  ,
  10.0,
  0.3,
  autocalculate,
  ZONE3 BULK STORAGE Activity Schedule,
  ,
  ,
  ZoneAveraged;

Lights,
  BIM2BEM_L2_Zone_28_Lights,
  L2_Zone_28,
  ltg_sch_bulk_storage,
  Watts/Area,
  ,
  18.298647708406527,
  ,
  0,
  0.42,
  0.18,
  1,
  LightsWired,
  No;

ElectricEquipment,
  BIM2BEM_L2_Zone_28_Equipment,
  L2_Zone_28,
  Bulk Storage Plug Schedule,
  Watts/Area,
  ,
  10.763910416709722,
  ,
  ,
  ,
  ,
  MiscPlug;

ZoneInfiltration:DesignFlowRate,
  BIM2BEM_L2_Zone_28_Infiltration,
  L2_Zone_28,
  Bulk Storage Infil_Base Schedule,
  Flow/ExteriorWallArea,
  ,
  ,
  0.00146921915640324,
  ,
  0,
  0,
  0.224,
  0;

People,
  BIM2BEM_L2_Zone_29_People,
  L2_Zone_29,
  BLDG_OCC_SCH,
  Area/Person,
  ,
  ,
  10.0,
  0.3,
  autocalculate,
  ZONE3 BULK STORAGE Activity Schedule,
  ,
  ,
  ZoneAveraged;

Lights,
  BIM2BEM_L2_Zone_29_Lights,
  L2_Zone_29,
  ltg_sch_bulk_storage,
  Watts/Area,
  ,
  18.298647708406527,
  ,
  0,
  0.42,
  0.18,
  1,
  LightsWired,
  No;

ElectricEquipment,
  BIM2BEM_L2_Zone_29_Equipment,
  L2_Zone_29,
  Bulk Storage Plug Schedule,
  Watts/Area,
  ,
  10.763910416709722,
  ,
  ,
  ,
  ,
  MiscPlug;

ZoneInfiltration:DesignFlowRate,
  BIM2BEM_L2_Zone_29_Infiltration,
  L2_Zone_29,
  Bulk Storage Infil_Base Schedule,
  Flow/ExteriorWallArea,
  ,
  ,
  0.00146921915640324,
  ,
  0,
  0,
  0.224,
  0;

People,
  BIM2BEM_L2_Zone_30_People,
  L2_Zone_30,
  BLDG_OCC_SCH,
  Area/Person,
  ,
  ,
  10.0,
  0.3,
  autocalculate,
  ZONE3 BULK STORAGE Activity Schedule,
  ,
  ,
  ZoneAveraged;

Lights,
  BIM2BEM_L2_Zone_30_Lights,
  L2_Zone_30,
  ltg_sch_bulk_storage,
  Watts/Area,
  ,
  18.298647708406527,
  ,
  0,
  0.42,
  0.18,
  1,
  LightsWired,
  No;

ElectricEquipment,
  BIM2BEM_L2_Zone_30_Equipment,
  L2_Zone_30,
  Bulk Storage Plug Schedule,
  Watts/Area,
  ,
  10.763910416709722,
  ,
  ,
  ,
  ,
  MiscPlug;

ZoneInfiltration:DesignFlowRate,
  BIM2BEM_L2_Zone_30_Infiltration,
  L2_Zone_30,
  Bulk Storage Infil_Base Schedule,
  Flow/ExteriorWallArea,
  ,
  ,
  0.00146921915640324,
  ,
  0,
  0,
  0.224,
  0;

People,
  BIM2BEM_L2_Zone_31_People,
  L2_Zone_31,
  BLDG_OCC_SCH,
  Area/Person,
  ,
  ,
  10.0,
  0.3,
  autocalculate,
  ZONE3 BULK STORAGE Activity Schedule,
  ,
  ,
  ZoneAveraged;

Lights,
  BIM2BEM_L2_Zone_31_Lights,
  L2_Zone_31,
  ltg_sch_bulk_storage,
  Watts/Area,
  ,
  18.298647708406527,
  ,
  0,
  0.42,
  0.18,
  1,
  LightsWired,
  No;

ElectricEquipment,
  BIM2BEM_L2_Zone_31_Equipment,
  L2_Zone_31,
  Bulk Storage Plug Schedule,
  Watts/Area,
  ,
  10.763910416709722,
  ,
  ,
  ,
  ,
  MiscPlug;

ZoneInfiltration:DesignFlowRate,
  BIM2BEM_L2_Zone_31_Infiltration,
  L2_Zone_31,
  Bulk Storage Infil_Base Schedule,
  Flow/ExteriorWallArea,
  ,
  ,
  0.00146921915640324,
  ,
  0,
  0,
  0.224,
  0;

People,
  BIM2BEM_L2_Zone_32_People,
  L2_Zone_32,
  BLDG_OCC_SCH,
  Area/Person,
  ,
  ,
  10.0,
  0.3,
  autocalculate,
  ZONE3 BULK STORAGE Activity Schedule,
  ,
  ,
  ZoneAveraged;

Lights,
  BIM2BEM_L2_Zone_32_Lights,
  L2_Zone_32,
  ltg_sch_bulk_storage,
  Watts/Area,
  ,
  18.298647708406527,
  ,
  0,
  0.42,
  0.18,
  1,
  LightsWired,
  No;

ElectricEquipment,
  BIM2BEM_L2_Zone_32_Equipment,
  L2_Zone_32,
  Bulk Storage Plug Schedule,
  Watts/Area,
  ,
  10.763910416709722,
  ,
  ,
  ,
  ,
  MiscPlug;

ZoneInfiltration:DesignFlowRate,
  BIM2BEM_L2_Zone_32_Infiltration,
  L2_Zone_32,
  Bulk Storage Infil_Base Schedule,
  Flow/ExteriorWallArea,
  ,
  ,
  0.00146921915640324,
  ,
  0,
  0,
  0.224,
  0;

People,
  BIM2BEM_L2_Zone_34_People,
  L2_Zone_34,
  BLDG_OCC_SCH,
  Area/Person,
  ,
  ,
  10.0,
  0.3,
  autocalculate,
  ZONE3 BULK STORAGE Activity Schedule,
  ,
  ,
  ZoneAveraged;

Lights,
  BIM2BEM_L2_Zone_34_Lights,
  L2_Zone_34,
  ltg_sch_bulk_storage,
  Watts/Area,
  ,
  18.298647708406527,
  ,
  0,
  0.42,
  0.18,
  1,
  LightsWired,
  No;

ElectricEquipment,
  BIM2BEM_L2_Zone_34_Equipment,
  L2_Zone_34,
  Bulk Storage Plug Schedule,
  Watts/Area,
  ,
  10.763910416709722,
  ,
  ,
  ,
  ,
  MiscPlug;

ZoneInfiltration:DesignFlowRate,
  BIM2BEM_L2_Zone_34_Infiltration,
  L2_Zone_34,
  Bulk Storage Infil_Base Schedule,
  Flow/ExteriorWallArea,
  ,
  ,
  0.00146921915640324,
  ,
  0,
  0,
  0.224,
  0;

People,
  BIM2BEM_L2_Zone_35_People,
  L2_Zone_35,
  BLDG_OCC_SCH,
  Area/Person,
  ,
  ,
  10.0,
  0.3,
  autocalculate,
  ZONE3 BULK STORAGE Activity Schedule,
  ,
  ,
  ZoneAveraged;

Lights,
  BIM2BEM_L2_Zone_35_Lights,
  L2_Zone_35,
  ltg_sch_bulk_storage,
  Watts/Area,
  ,
  18.298647708406527,
  ,
  0,
  0.42,
  0.18,
  1,
  LightsWired,
  No;

ElectricEquipment,
  BIM2BEM_L2_Zone_35_Equipment,
  L2_Zone_35,
  Bulk Storage Plug Schedule,
  Watts/Area,
  ,
  10.763910416709722,
  ,
  ,
  ,
  ,
  MiscPlug;

ZoneInfiltration:DesignFlowRate,
  BIM2BEM_L2_Zone_35_Infiltration,
  L2_Zone_35,
  Bulk Storage Infil_Base Schedule,
  Flow/ExteriorWallArea,
  ,
  ,
  0.00146921915640324,
  ,
  0,
  0,
  0.224,
  0;

People,
  BIM2BEM_L2_Zone_36_People,
  L2_Zone_36,
  BLDG_OCC_SCH,
  Area/Person,
  ,
  ,
  10.0,
  0.3,
  autocalculate,
  ZONE3 BULK STORAGE Activity Schedule,
  ,
  ,
  ZoneAveraged;

Lights,
  BIM2BEM_L2_Zone_36_Lights,
  L2_Zone_36,
  ltg_sch_bulk_storage,
  Watts/Area,
  ,
  18.298647708406527,
  ,
  0,
  0.42,
  0.18,
  1,
  LightsWired,
  No;

ElectricEquipment,
  BIM2BEM_L2_Zone_36_Equipment,
  L2_Zone_36,
  Bulk Storage Plug Schedule,
  Watts/Area,
  ,
  10.763910416709722,
  ,
  ,
  ,
  ,
  MiscPlug;

ZoneInfiltration:DesignFlowRate,
  BIM2BEM_L2_Zone_36_Infiltration,
  L2_Zone_36,
  Bulk Storage Infil_Base Schedule,
  Flow/ExteriorWallArea,
  ,
  ,
  0.00146921915640324,
  ,
  0,
  0,
  0.224,
  0;

People,
  BIM2BEM_L2_Zone_37_People,
  L2_Zone_37,
  BLDG_OCC_SCH,
  Area/Person,
  ,
  ,
  10.0,
  0.3,
  autocalculate,
  ZONE3 BULK STORAGE Activity Schedule,
  ,
  ,
  ZoneAveraged;

Lights,
  BIM2BEM_L2_Zone_37_Lights,
  L2_Zone_37,
  ltg_sch_bulk_storage,
  Watts/Area,
  ,
  18.298647708406527,
  ,
  0,
  0.42,
  0.18,
  1,
  LightsWired,
  No;

ElectricEquipment,
  BIM2BEM_L2_Zone_37_Equipment,
  L2_Zone_37,
  Bulk Storage Plug Schedule,
  Watts/Area,
  ,
  10.763910416709722,
  ,
  ,
  ,
  ,
  MiscPlug;

ZoneInfiltration:DesignFlowRate,
  BIM2BEM_L2_Zone_37_Infiltration,
  L2_Zone_37,
  Bulk Storage Infil_Base Schedule,
  Flow/ExteriorWallArea,
  ,
  ,
  0.00146921915640324,
  ,
  0,
  0,
  0.224,
  0;

People,
  BIM2BEM_L2_Zone_38_People,
  L2_Zone_38,
  BLDG_OCC_SCH,
  Area/Person,
  ,
  ,
  10.0,
  0.3,
  autocalculate,
  ZONE3 BULK STORAGE Activity Schedule,
  ,
  ,
  ZoneAveraged;

Lights,
  BIM2BEM_L2_Zone_38_Lights,
  L2_Zone_38,
  ltg_sch_bulk_storage,
  Watts/Area,
  ,
  18.298647708406527,
  ,
  0,
  0.42,
  0.18,
  1,
  LightsWired,
  No;

ElectricEquipment,
  BIM2BEM_L2_Zone_38_Equipment,
  L2_Zone_38,
  Bulk Storage Plug Schedule,
  Watts/Area,
  ,
  10.763910416709722,
  ,
  ,
  ,
  ,
  MiscPlug;

ZoneInfiltration:DesignFlowRate,
  BIM2BEM_L2_Zone_38_Infiltration,
  L2_Zone_38,
  Bulk Storage Infil_Base Schedule,
  Flow/ExteriorWallArea,
  ,
  ,
  0.00146921915640324,
  ,
  0,
  0,
  0.224,
  0;

People,
  BIM2BEM_L2_Zone_39_People,
  L2_Zone_39,
  BLDG_OCC_SCH,
  Area/Person,
  ,
  ,
  10.0,
  0.3,
  autocalculate,
  ZONE3 BULK STORAGE Activity Schedule,
  ,
  ,
  ZoneAveraged;

Lights,
  BIM2BEM_L2_Zone_39_Lights,
  L2_Zone_39,
  ltg_sch_bulk_storage,
  Watts/Area,
  ,
  18.298647708406527,
  ,
  0,
  0.42,
  0.18,
  1,
  LightsWired,
  No;

ElectricEquipment,
  BIM2BEM_L2_Zone_39_Equipment,
  L2_Zone_39,
  Bulk Storage Plug Schedule,
  Watts/Area,
  ,
  10.763910416709722,
  ,
  ,
  ,
  ,
  MiscPlug;

ZoneInfiltration:DesignFlowRate,
  BIM2BEM_L2_Zone_39_Infiltration,
  L2_Zone_39,
  Bulk Storage Infil_Base Schedule,
  Flow/ExteriorWallArea,
  ,
  ,
  0.00146921915640324,
  ,
  0,
  0,
  0.224,
  0;

People,
  BIM2BEM_L2_Zone_40_People,
  L2_Zone_40,
  BLDG_OCC_SCH,
  Area/Person,
  ,
  ,
  10.0,
  0.3,
  autocalculate,
  ZONE3 BULK STORAGE Activity Schedule,
  ,
  ,
  ZoneAveraged;

Lights,
  BIM2BEM_L2_Zone_40_Lights,
  L2_Zone_40,
  ltg_sch_bulk_storage,
  Watts/Area,
  ,
  18.298647708406527,
  ,
  0,
  0.42,
  0.18,
  1,
  LightsWired,
  No;

ElectricEquipment,
  BIM2BEM_L2_Zone_40_Equipment,
  L2_Zone_40,
  Bulk Storage Plug Schedule,
  Watts/Area,
  ,
  10.763910416709722,
  ,
  ,
  ,
  ,
  MiscPlug;

ZoneInfiltration:DesignFlowRate,
  BIM2BEM_L2_Zone_40_Infiltration,
  L2_Zone_40,
  Bulk Storage Infil_Base Schedule,
  Flow/ExteriorWallArea,
  ,
  ,
  0.00146921915640324,
  ,
  0,
  0,
  0.224,
  0;

People,
  BIM2BEM_L2_Zone_42_People,
  L2_Zone_42,
  BLDG_OCC_SCH,
  Area/Person,
  ,
  ,
  10.0,
  0.3,
  autocalculate,
  ZONE3 BULK STORAGE Activity Schedule,
  ,
  ,
  ZoneAveraged;

Lights,
  BIM2BEM_L2_Zone_42_Lights,
  L2_Zone_42,
  ltg_sch_bulk_storage,
  Watts/Area,
  ,
  18.298647708406527,
  ,
  0,
  0.42,
  0.18,
  1,
  LightsWired,
  No;

ElectricEquipment,
  BIM2BEM_L2_Zone_42_Equipment,
  L2_Zone_42,
  Bulk Storage Plug Schedule,
  Watts/Area,
  ,
  10.763910416709722,
  ,
  ,
  ,
  ,
  MiscPlug;

ZoneInfiltration:DesignFlowRate,
  BIM2BEM_L2_Zone_42_Infiltration,
  L2_Zone_42,
  Bulk Storage Infil_Base Schedule,
  Flow/ExteriorWallArea,
  ,
  ,
  0.00146921915640324,
  ,
  0,
  0,
  0.224,
  0;

People,
  BIM2BEM_L2_Zone_43_People,
  L2_Zone_43,
  BLDG_OCC_SCH,
  Area/Person,
  ,
  ,
  10.0,
  0.3,
  autocalculate,
  ZONE3 BULK STORAGE Activity Schedule,
  ,
  ,
  ZoneAveraged;

Lights,
  BIM2BEM_L2_Zone_43_Lights,
  L2_Zone_43,
  ltg_sch_bulk_storage,
  Watts/Area,
  ,
  18.298647708406527,
  ,
  0,
  0.42,
  0.18,
  1,
  LightsWired,
  No;

ElectricEquipment,
  BIM2BEM_L2_Zone_43_Equipment,
  L2_Zone_43,
  Bulk Storage Plug Schedule,
  Watts/Area,
  ,
  10.763910416709722,
  ,
  ,
  ,
  ,
  MiscPlug;

ZoneInfiltration:DesignFlowRate,
  BIM2BEM_L2_Zone_43_Infiltration,
  L2_Zone_43,
  Bulk Storage Infil_Base Schedule,
  Flow/ExteriorWallArea,
  ,
  ,
  0.00146921915640324,
  ,
  0,
  0,
  0.224,
  0;

People,
  BIM2BEM_L2_Zone_44_People,
  L2_Zone_44,
  BLDG_OCC_SCH,
  Area/Person,
  ,
  ,
  10.0,
  0.3,
  autocalculate,
  ZONE3 BULK STORAGE Activity Schedule,
  ,
  ,
  ZoneAveraged;

Lights,
  BIM2BEM_L2_Zone_44_Lights,
  L2_Zone_44,
  ltg_sch_bulk_storage,
  Watts/Area,
  ,
  18.298647708406527,
  ,
  0,
  0.42,
  0.18,
  1,
  LightsWired,
  No;

ElectricEquipment,
  BIM2BEM_L2_Zone_44_Equipment,
  L2_Zone_44,
  Bulk Storage Plug Schedule,
  Watts/Area,
  ,
  10.763910416709722,
  ,
  ,
  ,
  ,
  MiscPlug;

ZoneInfiltration:DesignFlowRate,
  BIM2BEM_L2_Zone_44_Infiltration,
  L2_Zone_44,
  Bulk Storage Infil_Base Schedule,
  Flow/ExteriorWallArea,
  ,
  ,
  0.00146921915640324,
  ,
  0,
  0,
  0.224,
  0;

People,
  BIM2BEM_L3_Zone_45_People,
  L3_Zone_45,
  BLDG_OCC_SCH,
  Area/Person,
  ,
  ,
  10.0,
  0.3,
  autocalculate,
  ZONE3 BULK STORAGE Activity Schedule,
  ,
  ,
  ZoneAveraged;

Lights,
  BIM2BEM_L3_Zone_45_Lights,
  L3_Zone_45,
  ltg_sch_bulk_storage,
  Watts/Area,
  ,
  18.298647708406527,
  ,
  0,
  0.42,
  0.18,
  1,
  LightsWired,
  No;

ElectricEquipment,
  BIM2BEM_L3_Zone_45_Equipment,
  L3_Zone_45,
  Bulk Storage Plug Schedule,
  Watts/Area,
  ,
  10.763910416709722,
  ,
  ,
  ,
  ,
  MiscPlug;

ZoneInfiltration:DesignFlowRate,
  BIM2BEM_L3_Zone_45_Infiltration,
  L3_Zone_45,
  Bulk Storage Infil_Base Schedule,
  Flow/ExteriorWallArea,
  ,
  ,
  0.00146921915640324,
  ,
  0,
  0,
  0.224,
  0;

People,
  BIM2BEM_L3_Zone_46_People,
  L3_Zone_46,
  BLDG_OCC_SCH,
  Area/Person,
  ,
  ,
  10.0,
  0.3,
  autocalculate,
  ZONE3 BULK STORAGE Activity Schedule,
  ,
  ,
  ZoneAveraged;

Lights,
  BIM2BEM_L3_Zone_46_Lights,
  L3_Zone_46,
  ltg_sch_bulk_storage,
  Watts/Area,
  ,
  18.298647708406527,
  ,
  0,
  0.42,
  0.18,
  1,
  LightsWired,
  No;

ElectricEquipment,
  BIM2BEM_L3_Zone_46_Equipment,
  L3_Zone_46,
  Bulk Storage Plug Schedule,
  Watts/Area,
  ,
  10.763910416709722,
  ,
  ,
  ,
  ,
  MiscPlug;

ZoneInfiltration:DesignFlowRate,
  BIM2BEM_L3_Zone_46_Infiltration,
  L3_Zone_46,
  Bulk Storage Infil_Base Schedule,
  Flow/ExteriorWallArea,
  ,
  ,
  0.00146921915640324,
  ,
  0,
  0,
  0.224,
  0;

People,
  BIM2BEM_L3_Zone_47_People,
  L3_Zone_47,
  BLDG_OCC_SCH,
  Area/Person,
  ,
  ,
  10.0,
  0.3,
  autocalculate,
  ZONE3 BULK STORAGE Activity Schedule,
  ,
  ,
  ZoneAveraged;

Lights,
  BIM2BEM_L3_Zone_47_Lights,
  L3_Zone_47,
  ltg_sch_bulk_storage,
  Watts/Area,
  ,
  18.298647708406527,
  ,
  0,
  0.42,
  0.18,
  1,
  LightsWired,
  No;

ElectricEquipment,
  BIM2BEM_L3_Zone_47_Equipment,
  L3_Zone_47,
  Bulk Storage Plug Schedule,
  Watts/Area,
  ,
  10.763910416709722,
  ,
  ,
  ,
  ,
  MiscPlug;

ZoneInfiltration:DesignFlowRate,
  BIM2BEM_L3_Zone_47_Infiltration,
  L3_Zone_47,
  Bulk Storage Infil_Base Schedule,
  Flow/ExteriorWallArea,
  ,
  ,
  0.00146921915640324,
  ,
  0,
  0,
  0.224,
  0;

People,
  BIM2BEM_L3_Zone_49_People,
  L3_Zone_49,
  BLDG_OCC_SCH,
  Area/Person,
  ,
  ,
  10.0,
  0.3,
  autocalculate,
  ZONE3 BULK STORAGE Activity Schedule,
  ,
  ,
  ZoneAveraged;

Lights,
  BIM2BEM_L3_Zone_49_Lights,
  L3_Zone_49,
  ltg_sch_bulk_storage,
  Watts/Area,
  ,
  18.298647708406527,
  ,
  0,
  0.42,
  0.18,
  1,
  LightsWired,
  No;

ElectricEquipment,
  BIM2BEM_L3_Zone_49_Equipment,
  L3_Zone_49,
  Bulk Storage Plug Schedule,
  Watts/Area,
  ,
  10.763910416709722,
  ,
  ,
  ,
  ,
  MiscPlug;

ZoneInfiltration:DesignFlowRate,
  BIM2BEM_L3_Zone_49_Infiltration,
  L3_Zone_49,
  Bulk Storage Infil_Base Schedule,
  Flow/ExteriorWallArea,
  ,
  ,
  0.00146921915640324,
  ,
  0,
  0,
  0.224,
  0;

People,
  BIM2BEM_L3_Zone_50_People,
  L3_Zone_50,
  BLDG_OCC_SCH,
  Area/Person,
  ,
  ,
  10.0,
  0.3,
  autocalculate,
  ZONE3 BULK STORAGE Activity Schedule,
  ,
  ,
  ZoneAveraged;

Lights,
  BIM2BEM_L3_Zone_50_Lights,
  L3_Zone_50,
  ltg_sch_bulk_storage,
  Watts/Area,
  ,
  18.298647708406527,
  ,
  0,
  0.42,
  0.18,
  1,
  LightsWired,
  No;

ElectricEquipment,
  BIM2BEM_L3_Zone_50_Equipment,
  L3_Zone_50,
  Bulk Storage Plug Schedule,
  Watts/Area,
  ,
  10.763910416709722,
  ,
  ,
  ,
  ,
  MiscPlug;

ZoneInfiltration:DesignFlowRate,
  BIM2BEM_L3_Zone_50_Infiltration,
  L3_Zone_50,
  Bulk Storage Infil_Base Schedule,
  Flow/ExteriorWallArea,
  ,
  ,
  0.00146921915640324,
  ,
  0,
  0,
  0.224,
  0;

People,
  BIM2BEM_L3_Zone_51_People,
  L3_Zone_51,
  BLDG_OCC_SCH,
  Area/Person,
  ,
  ,
  10.0,
  0.3,
  autocalculate,
  ZONE3 BULK STORAGE Activity Schedule,
  ,
  ,
  ZoneAveraged;

Lights,
  BIM2BEM_L3_Zone_51_Lights,
  L3_Zone_51,
  ltg_sch_bulk_storage,
  Watts/Area,
  ,
  18.298647708406527,
  ,
  0,
  0.42,
  0.18,
  1,
  LightsWired,
  No;

ElectricEquipment,
  BIM2BEM_L3_Zone_51_Equipment,
  L3_Zone_51,
  Bulk Storage Plug Schedule,
  Watts/Area,
  ,
  10.763910416709722,
  ,
  ,
  ,
  ,
  MiscPlug;

ZoneInfiltration:DesignFlowRate,
  BIM2BEM_L3_Zone_51_Infiltration,
  L3_Zone_51,
  Bulk Storage Infil_Base Schedule,
  Flow/ExteriorWallArea,
  ,
  ,
  0.00146921915640324,
  ,
  0,
  0,
  0.224,
  0;

People,
  BIM2BEM_L3_Zone_52_People,
  L3_Zone_52,
  BLDG_OCC_SCH,
  Area/Person,
  ,
  ,
  10.0,
  0.3,
  autocalculate,
  ZONE3 BULK STORAGE Activity Schedule,
  ,
  ,
  ZoneAveraged;

Lights,
  BIM2BEM_L3_Zone_52_Lights,
  L3_Zone_52,
  ltg_sch_bulk_storage,
  Watts/Area,
  ,
  18.298647708406527,
  ,
  0,
  0.42,
  0.18,
  1,
  LightsWired,
  No;

ElectricEquipment,
  BIM2BEM_L3_Zone_52_Equipment,
  L3_Zone_52,
  Bulk Storage Plug Schedule,
  Watts/Area,
  ,
  10.763910416709722,
  ,
  ,
  ,
  ,
  MiscPlug;

ZoneInfiltration:DesignFlowRate,
  BIM2BEM_L3_Zone_52_Infiltration,
  L3_Zone_52,
  Bulk Storage Infil_Base Schedule,
  Flow/ExteriorWallArea,
  ,
  ,
  0.00146921915640324,
  ,
  0,
  0,
  0.224,
  0;

People,
  BIM2BEM_L3_Zone_53_People,
  L3_Zone_53,
  BLDG_OCC_SCH,
  Area/Person,
  ,
  ,
  10.0,
  0.3,
  autocalculate,
  ZONE3 BULK STORAGE Activity Schedule,
  ,
  ,
  ZoneAveraged;

Lights,
  BIM2BEM_L3_Zone_53_Lights,
  L3_Zone_53,
  ltg_sch_bulk_storage,
  Watts/Area,
  ,
  18.298647708406527,
  ,
  0,
  0.42,
  0.18,
  1,
  LightsWired,
  No;

ElectricEquipment,
  BIM2BEM_L3_Zone_53_Equipment,
  L3_Zone_53,
  Bulk Storage Plug Schedule,
  Watts/Area,
  ,
  10.763910416709722,
  ,
  ,
  ,
  ,
  MiscPlug;

ZoneInfiltration:DesignFlowRate,
  BIM2BEM_L3_Zone_53_Infiltration,
  L3_Zone_53,
  Bulk Storage Infil_Base Schedule,
  Flow/ExteriorWallArea,
  ,
  ,
  0.00146921915640324,
  ,
  0,
  0,
  0.224,
  0;

People,
  BIM2BEM_L3_Zone_54_People,
  L3_Zone_54,
  BLDG_OCC_SCH,
  Area/Person,
  ,
  ,
  10.0,
  0.3,
  autocalculate,
  ZONE3 BULK STORAGE Activity Schedule,
  ,
  ,
  ZoneAveraged;

Lights,
  BIM2BEM_L3_Zone_54_Lights,
  L3_Zone_54,
  ltg_sch_bulk_storage,
  Watts/Area,
  ,
  18.298647708406527,
  ,
  0,
  0.42,
  0.18,
  1,
  LightsWired,
  No;

ElectricEquipment,
  BIM2BEM_L3_Zone_54_Equipment,
  L3_Zone_54,
  Bulk Storage Plug Schedule,
  Watts/Area,
  ,
  10.763910416709722,
  ,
  ,
  ,
  ,
  MiscPlug;

ZoneInfiltration:DesignFlowRate,
  BIM2BEM_L3_Zone_54_Infiltration,
  L3_Zone_54,
  Bulk Storage Infil_Base Schedule,
  Flow/ExteriorWallArea,
  ,
  ,
  0.00146921915640324,
  ,
  0,
  0,
  0.224,
  0;

People,
  BIM2BEM_L3_Zone_55_People,
  L3_Zone_55,
  BLDG_OCC_SCH,
  Area/Person,
  ,
  ,
  10.0,
  0.3,
  autocalculate,
  ZONE3 BULK STORAGE Activity Schedule,
  ,
  ,
  ZoneAveraged;

Lights,
  BIM2BEM_L3_Zone_55_Lights,
  L3_Zone_55,
  ltg_sch_bulk_storage,
  Watts/Area,
  ,
  18.298647708406527,
  ,
  0,
  0.42,
  0.18,
  1,
  LightsWired,
  No;

ElectricEquipment,
  BIM2BEM_L3_Zone_55_Equipment,
  L3_Zone_55,
  Bulk Storage Plug Schedule,
  Watts/Area,
  ,
  10.763910416709722,
  ,
  ,
  ,
  ,
  MiscPlug;

ZoneInfiltration:DesignFlowRate,
  BIM2BEM_L3_Zone_55_Infiltration,
  L3_Zone_55,
  Bulk Storage Infil_Base Schedule,
  Flow/ExteriorWallArea,
  ,
  ,
  0.00146921915640324,
  ,
  0,
  0,
  0.224,
  0;

People,
  BIM2BEM_L3_Zone_56_People,
  L3_Zone_56,
  BLDG_OCC_SCH,
  Area/Person,
  ,
  ,
  10.0,
  0.3,
  autocalculate,
  ZONE3 BULK STORAGE Activity Schedule,
  ,
  ,
  ZoneAveraged;

Lights,
  BIM2BEM_L3_Zone_56_Lights,
  L3_Zone_56,
  ltg_sch_bulk_storage,
  Watts/Area,
  ,
  18.298647708406527,
  ,
  0,
  0.42,
  0.18,
  1,
  LightsWired,
  No;

ElectricEquipment,
  BIM2BEM_L3_Zone_56_Equipment,
  L3_Zone_56,
  Bulk Storage Plug Schedule,
  Watts/Area,
  ,
  10.763910416709722,
  ,
  ,
  ,
  ,
  MiscPlug;

ZoneInfiltration:DesignFlowRate,
  BIM2BEM_L3_Zone_56_Infiltration,
  L3_Zone_56,
  Bulk Storage Infil_Base Schedule,
  Flow/ExteriorWallArea,
  ,
  ,
  0.00146921915640324,
  ,
  0,
  0,
  0.224,
  0;

People,
  BIM2BEM_L3_Zone_57_People,
  L3_Zone_57,
  BLDG_OCC_SCH,
  Area/Person,
  ,
  ,
  10.0,
  0.3,
  autocalculate,
  ZONE3 BULK STORAGE Activity Schedule,
  ,
  ,
  ZoneAveraged;

Lights,
  BIM2BEM_L3_Zone_57_Lights,
  L3_Zone_57,
  ltg_sch_bulk_storage,
  Watts/Area,
  ,
  18.298647708406527,
  ,
  0,
  0.42,
  0.18,
  1,
  LightsWired,
  No;

ElectricEquipment,
  BIM2BEM_L3_Zone_57_Equipment,
  L3_Zone_57,
  Bulk Storage Plug Schedule,
  Watts/Area,
  ,
  10.763910416709722,
  ,
  ,
  ,
  ,
  MiscPlug;

ZoneInfiltration:DesignFlowRate,
  BIM2BEM_L3_Zone_57_Infiltration,
  L3_Zone_57,
  Bulk Storage Infil_Base Schedule,
  Flow/ExteriorWallArea,
  ,
  ,
  0.00146921915640324,
  ,
  0,
  0,
  0.224,
  0;

People,
  BIM2BEM_L4_Zone_58_People,
  L4_Zone_58,
  BLDG_OCC_SCH,
  Area/Person,
  ,
  ,
  10.0,
  0.3,
  autocalculate,
  ZONE3 BULK STORAGE Activity Schedule,
  ,
  ,
  ZoneAveraged;

Lights,
  BIM2BEM_L4_Zone_58_Lights,
  L4_Zone_58,
  ltg_sch_bulk_storage,
  Watts/Area,
  ,
  18.298647708406527,
  ,
  0,
  0.42,
  0.18,
  1,
  LightsWired,
  No;

ElectricEquipment,
  BIM2BEM_L4_Zone_58_Equipment,
  L4_Zone_58,
  Bulk Storage Plug Schedule,
  Watts/Area,
  ,
  10.763910416709722,
  ,
  ,
  ,
  ,
  MiscPlug;

ZoneInfiltration:DesignFlowRate,
  BIM2BEM_L4_Zone_58_Infiltration,
  L4_Zone_58,
  Bulk Storage Infil_Base Schedule,
  Flow/ExteriorWallArea,
  ,
  ,
  0.00146921915640324,
  ,
  0,
  0,
  0.224,
  0;

People,
  BIM2BEM_L4_Zone_60_People,
  L4_Zone_60,
  BLDG_OCC_SCH,
  Area/Person,
  ,
  ,
  10.0,
  0.3,
  autocalculate,
  ZONE3 BULK STORAGE Activity Schedule,
  ,
  ,
  ZoneAveraged;

Lights,
  BIM2BEM_L4_Zone_60_Lights,
  L4_Zone_60,
  ltg_sch_bulk_storage,
  Watts/Area,
  ,
  18.298647708406527,
  ,
  0,
  0.42,
  0.18,
  1,
  LightsWired,
  No;

ElectricEquipment,
  BIM2BEM_L4_Zone_60_Equipment,
  L4_Zone_60,
  Bulk Storage Plug Schedule,
  Watts/Area,
  ,
  10.763910416709722,
  ,
  ,
  ,
  ,
  MiscPlug;

ZoneInfiltration:DesignFlowRate,
  BIM2BEM_L4_Zone_60_Infiltration,
  L4_Zone_60,
  Bulk Storage Infil_Base Schedule,
  Flow/ExteriorWallArea,
  ,
  ,
  0.00146921915640324,
  ,
  0,
  0,
  0.224,
  0;

People,
  BIM2BEM_L4_Zone_61_People,
  L4_Zone_61,
  BLDG_OCC_SCH,
  Area/Person,
  ,
  ,
  10.0,
  0.3,
  autocalculate,
  ZONE3 BULK STORAGE Activity Schedule,
  ,
  ,
  ZoneAveraged;

Lights,
  BIM2BEM_L4_Zone_61_Lights,
  L4_Zone_61,
  ltg_sch_bulk_storage,
  Watts/Area,
  ,
  18.298647708406527,
  ,
  0,
  0.42,
  0.18,
  1,
  LightsWired,
  No;

ElectricEquipment,
  BIM2BEM_L4_Zone_61_Equipment,
  L4_Zone_61,
  Bulk Storage Plug Schedule,
  Watts/Area,
  ,
  10.763910416709722,
  ,
  ,
  ,
  ,
  MiscPlug;

ZoneInfiltration:DesignFlowRate,
  BIM2BEM_L4_Zone_61_Infiltration,
  L4_Zone_61,
  Bulk Storage Infil_Base Schedule,
  Flow/ExteriorWallArea,
  ,
  ,
  0.00146921915640324,
  ,
  0,
  0,
  0.224,
  0;

People,
  BIM2BEM_L2_Zone_26_People,
  L2_Zone_26,
  BLDG_OCC_SCH,
  Area/Person,
  ,
  ,
  10.0,
  0.3,
  autocalculate,
  ZONE3 BULK STORAGE Activity Schedule,
  ,
  ,
  ZoneAveraged;

Lights,
  BIM2BEM_L2_Zone_26_Lights,
  L2_Zone_26,
  ltg_sch_bulk_storage,
  Watts/Area,
  ,
  18.298647708406527,
  ,
  0,
  0.42,
  0.18,
  1,
  LightsWired,
  No;

ElectricEquipment,
  BIM2BEM_L2_Zone_26_Equipment,
  L2_Zone_26,
  Bulk Storage Plug Schedule,
  Watts/Area,
  ,
  10.763910416709722,
  ,
  ,
  ,
  ,
  MiscPlug;

ZoneInfiltration:DesignFlowRate,
  BIM2BEM_L2_Zone_26_Infiltration,
  L2_Zone_26,
  Bulk Storage Infil_Base Schedule,
  Flow/ExteriorWallArea,
  ,
  ,
  0.00146921915640324,
  ,
  0,
  0,
  0.224,
  0;

SizingPeriod:DesignDay,
  Las Vegas Mccarran Intl Ap Ann Htg 99.6% Condns DB,
  12,
  21,
  WinterDesignDay,
  -0.8,
  0.0,
  DefaultMultipliers,
  ,
  Wetbulb,
  -0.8,
  ,
  ,
  ,
  ,
  93779.,
  3,
  240,
  No,
  No,
  No,
  ASHRAEClearSky,
  ,
  ,
  ,
  ,
  0.00;

SizingPeriod:DesignDay,
  Las Vegas Mccarran Intl Ap Ann Clg .4% Condns DB=>MWB,
  7,
  21,
  SummerDesignDay,
  42.4,
  13,
  DefaultMultipliers,
  ,
  Wetbulb,
  20.1,
  ,
  ,
  ,
  ,
  93779.,
  4.9,
  230,
  No,
  No,
  No,
  ASHRAETau,
  ,
  ,
  0.550,
  1.674;
