!-Generator IDFEditor 1.51
!-Option SortedOrder

!-NOTE: All comments with '!-' are ignored by the IDFEditor and are generated automatically.
!-      Use '!' comments if they need to be retained when using the IDFEditor.


!-   ===========  ALL OBJECTS IN CLASS: VERSION ===========

Version,
    9.6;                     !- Version Identifier


!-   ===========  ALL OBJECTS IN CLASS: SIMULATIONCONTROL ===========

SimulationControl,
    No,                      !- Do Zone Sizing Calculation
    No,                      !- Do System Sizing Calculation
    No,                      !- Do Plant Sizing Calculation
    No,                      !- Run Simulation for Sizing Periods
    Yes,                     !- Run Simulation for Weather File Run Periods
    No,                      !- Do HVAC Sizing Simulation for Sizing Periods
    1;                       !- Maximum Number of HVAC Sizing Simulation Passes


!-   ===========  ALL OBJECTS IN CLASS: BUILDING ===========

Building,
    Untitled,                !- Name
    0.0,                     !- North Axis {deg}
    City,                    !- Terrain
    0.04,                    !- Loads Convergence Tolerance Value {W}
    0.4,                     !- Temperature Convergence Tolerance Value {deltaC}
    FullInteriorAndExterior, !- Solar Distribution
    25,                      !- Maximum Number of Warmup Days
    ;                        !- Minimum Number of Warmup Days


!-   ===========  ALL OBJECTS IN CLASS: TIMESTEP ===========

Timestep,
    6;                       !- Number of Timesteps per Hour


!-   ===========  ALL OBJECTS IN CLASS: SITE:LOCATION ===========

Site:Location,
    CHICAGO_IL_USA TMY2-94846,  !- Name
    41.78,                   !- Latitude {deg}
    -87.75,                  !- Longitude {deg}
    -6.0,                    !- Time Zone {hr}
    190.00;                  !- Elevation {m}


!-   ===========  ALL OBJECTS IN CLASS: RUNPERIOD ===========

RunPeriod,
    run,                     !- Name
    1,                       !- Begin Month
    1,                       !- Begin Day of Month
    ,                        !- Begin Year
    12,                      !- End Month
    31,                      !- End Day of Month
    ,                        !- End Year
    ,                        !- Day of Week for Start Day
    Yes,                     !- Use Weather File Holidays and Special Days
    Yes,                     !- Use Weather File Daylight Saving Period
    No,                      !- Apply Weekend Holiday Rule
    Yes,                     !- Use Weather File Rain Indicators
    Yes,                     !- Use Weather File Snow Indicators
    No,                      !- Treat Weather as Actual
    Hour24;                  !- First Hour Interpolation Starting Values


!-   ===========  ALL OBJECTS IN CLASS: SCHEDULETYPELIMITS ===========

ScheduleTypeLimits,
    Any Number;              !- Name

ScheduleTypeLimits,
    Fraction,                !- Name
    0.0,                     !- Lower Limit Value
    1.0,                     !- Upper Limit Value
    CONTINUOUS;              !- Numeric Type

ScheduleTypeLimits,
    Temperature,             !- Name
    -60,                     !- Lower Limit Value
    200,                     !- Upper Limit Value
    CONTINUOUS;              !- Numeric Type

ScheduleTypeLimits,
    On/Off,                  !- Name
    0,                       !- Lower Limit Value
    1,                       !- Upper Limit Value
    DISCRETE;                !- Numeric Type

ScheduleTypeLimits,
    Control Type,            !- Name
    0,                       !- Lower Limit Value
    4,                       !- Upper Limit Value
    DISCRETE;                !- Numeric Type

ScheduleTypeLimits,
    Humidity,                !- Name
    10,                      !- Lower Limit Value
    90,                      !- Upper Limit Value
    CONTINUOUS;              !- Numeric Type

ScheduleTypeLimits,
    Number;                  !- Name


!-   ===========  ALL OBJECTS IN CLASS: SCHEDULE:COMPACT ===========

Schedule:Compact,
    Office Lights Schedule,  !- Name
    Fraction,                !- Schedule Type Limits Name
    Through: 12/31,          !- Field 1
    For: Weekdays,           !- Field 2
    Until: 05:00,            !- Field 3
    0.05,                    !- Field 4
    Until: 07:00,            !- Field 5
    0.1,                     !- Field 6
    Until: 08:00,            !- Field 7
    0.3,                     !- Field 8
    Until: 17:00,            !- Field 9
    0.9,                     !- Field 10
    Until: 18:00,            !- Field 11
    0.5,                     !- Field 12
    Until: 20:00,            !- Field 13
    0.3,                     !- Field 14
    Until: 22:00,            !- Field 15
    0.2,                     !- Field 16
    Until: 23:00,            !- Field 17
    0.1,                     !- Field 18
    Until: 24:00,            !- Field 19
    0.05,                    !- Field 20
    For: SummerDesignDay,    !- Field 21
    Until: 24:00,            !- Field 22
    1.0,                     !- Field 23
    For: Saturday,           !- Field 24
    Until: 06:00,            !- Field 25
    0.05,                    !- Field 26
    Until: 08:00,            !- Field 27
    0.1,                     !- Field 28
    Until: 12:00,            !- Field 29
    0.3,                     !- Field 30
    Until: 17:00,            !- Field 31
    0.15,                    !- Field 32
    Until: 24:00,            !- Field 33
    0.05,                    !- Field 34
    For: WinterDesignDay,    !- Field 35
    Until: 24:00,            !- Field 36
    0.0,                     !- Field 37
    For: Sunday Holidays AllOtherDays,  !- Field 38
    Until: 24:00,            !- Field 39
    0.05;                    !- Field 40

Schedule:Compact,
    Office Equipment Schedule,  !- Name
    Fraction,                !- Schedule Type Limits Name
    Through: 12/31,          !- Field 1
    For: Weekdays,           !- Field 2
    Until: 08:00,            !- Field 3
    0.40,                    !- Field 4
    Until: 12:00,            !- Field 5
    0.90,                    !- Field 6
    Until: 13:00,            !- Field 7
    0.80,                    !- Field 8
    Until: 17:00,            !- Field 9
    0.90,                    !- Field 10
    Until: 18:00,            !- Field 11
    0.50,                    !- Field 12
    Until: 24:00,            !- Field 13
    0.40,                    !- Field 14
    For: SummerDesignDay,    !- Field 15
    Until: 24:00,            !- Field 16
    1.0,                     !- Field 17
    For: Saturday,           !- Field 18
    Until: 06:00,            !- Field 19
    0.30,                    !- Field 20
    Until: 08:00,            !- Field 21
    0.4,                     !- Field 22
    Until: 12:00,            !- Field 23
    0.5,                     !- Field 24
    Until: 17:00,            !- Field 25
    0.35,                    !- Field 26
    Until: 24:00,            !- Field 27
    0.30,                    !- Field 28
    For: WinterDesignDay,    !- Field 29
    Until: 24:00,            !- Field 30
    0.0,                     !- Field 31
    For: Sunday Holidays AllOtherDays,  !- Field 32
    Until: 24:00,            !- Field 33
    0.30;                    !- Field 34

Schedule:Compact,
    Office Occupancy Schedule,  !- Name
    Fraction,                !- Schedule Type Limits Name
    Through: 12/31,          !- Field 1
    For: Weekdays,           !- Field 2
    Until: 06:00,            !- Field 3
    0.0,                     !- Field 4
    Until: 07:00,            !- Field 5
    0.1,                     !- Field 6
    Until: 08:00,            !- Field 7
    0.2,                     !- Field 8
    Until: 12:00,            !- Field 9
    0.95,                    !- Field 10
    Until: 13:00,            !- Field 11
    0.5,                     !- Field 12
    Until: 17:00,            !- Field 13
    0.95,                    !- Field 14
    Until: 18:00,            !- Field 15
    0.3,                     !- Field 16
    Until: 20:00,            !- Field 17
    0.1,                     !- Field 18
    Until: 24:00,            !- Field 19
    0.05,                    !- Field 20
    For: SummerDesignDay,    !- Field 21
    Until: 06:00,            !- Field 22
    0.0,                     !- Field 23
    Until: 22:00,            !- Field 24
    1.0,                     !- Field 25
    Until: 24:00,            !- Field 26
    0.05,                    !- Field 27
    For: Saturday,           !- Field 28
    Until: 06:00,            !- Field 29
    0.0,                     !- Field 30
    Until: 08:00,            !- Field 31
    0.1,                     !- Field 32
    Until: 12:00,            !- Field 33
    0.3,                     !- Field 34
    Until: 17:00,            !- Field 35
    0.1,                     !- Field 36
    Until: 19:00,            !- Field 37
    0.0,                     !- Field 38
    Until: 24:00,            !- Field 39
    0.0,                     !- Field 40
    For: WinterDesignDay,    !- Field 41
    Until: 24:00,            !- Field 42
    0.0,                     !- Field 43
    For: Sunday Holidays AllOtherDays,  !- Field 44
    Until: 06:00,            !- Field 45
    0.0,                     !- Field 46
    Until: 18:00,            !- Field 47
    0.0,                     !- Field 48
    Until: 24:00,            !- Field 49
    0.0;                     !- Field 50

Schedule:Compact,
    Infiltration Schedule,   !- Name
    Fraction,                !- Schedule Type Limits Name
    Through: 12/31,          !- Field 1
    For: Weekdays SummerDesignDay,  !- Field 2
    Until: 06:00,            !- Field 3
    1.0,                     !- Field 4
    Until: 22:00,            !- Field 5
    0.0,                     !- Field 6
    Until: 24:00,            !- Field 7
    1.0,                     !- Field 8
    For: Saturday WinterDesignDay,  !- Field 9
    Until: 06:00,            !- Field 10
    1.0,                     !- Field 11
    Until: 18:00,            !- Field 12
    0.0,                     !- Field 13
    Until: 24:00,            !- Field 14
    1.0,                     !- Field 15
    For: Sunday Holidays AllOtherDays,  !- Field 16
    Until: 24:00,            !- Field 17
    1.0;                     !- Field 18

Schedule:Compact,
    Infiltration Half On Schedule,  !- Name
    Fraction,                !- Schedule Type Limits Name
    Through: 12/31,          !- Field 1
    For: Weekdays SummerDesignDay,  !- Field 2
    Until: 06:00,            !- Field 3
    1.0,                     !- Field 4
    Until: 22:00,            !- Field 5
    0.5,                     !- Field 6
    Until: 24:00,            !- Field 7
    1.0,                     !- Field 8
    For: Saturday WinterDesignDay,  !- Field 9
    Until: 06:00,            !- Field 10
    1.0,                     !- Field 11
    Until: 18:00,            !- Field 12
    0.5,                     !- Field 13
    Until: 24:00,            !- Field 14
    1.0,                     !- Field 15
    For: Sunday Holidays AllOtherDays,  !- Field 16
    Until: 24:00,            !- Field 17
    1.0;                     !- Field 18

Schedule:Compact,
    Infiltration Quarter On Schedule,  !- Name
    Fraction,                !- Schedule Type Limits Name
    Through: 12/31,          !- Field 1
    For: Weekdays SummerDesignDay,  !- Field 2
    Until: 06:00,            !- Field 3
    1.0,                     !- Field 4
    Until: 22:00,            !- Field 5
    0.25,                    !- Field 6
    Until: 24:00,            !- Field 7
    1.0,                     !- Field 8
    For: Saturday WinterDesignDay,  !- Field 9
    Until: 06:00,            !- Field 10
    1.0,                     !- Field 11
    Until: 18:00,            !- Field 12
    0.25,                    !- Field 13
    Until: 24:00,            !- Field 14
    1.0,                     !- Field 15
    For: Sunday Holidays AllOtherDays,  !- Field 16
    Until: 24:00,            !- Field 17
    1.0;                     !- Field 18

Schedule:Compact,
    Hours of Operation Schedule,  !- Name
    On/Off,                  !- Schedule Type Limits Name
    Through: 12/31,          !- Field 1
    For: Weekdays SummerDesignDay,  !- Field 2
    Until: 06:00,            !- Field 3
    0.0,                     !- Field 4
    Until: 22:00,            !- Field 5
    1.0,                     !- Field 6
    Until: 24:00,            !- Field 7
    0.0,                     !- Field 8
    For: Saturday WinterDesignDay,  !- Field 9
    Until: 06:00,            !- Field 10
    0.0,                     !- Field 11
    Until: 18:00,            !- Field 12
    1.0,                     !- Field 13
    Until: 24:00,            !- Field 14
    0.0,                     !- Field 15
    For: Sunday Holidays AllOtherDays,  !- Field 16
    Until: 24:00,            !- Field 17
    0.0;                     !- Field 18

Schedule:Compact,
    Always On,               !- Name
    Fraction,                !- Schedule Type Limits Name
    Through: 12/31,          !- Field 1
    For: AllDays,            !- Field 2
    Until: 24:00,            !- Field 3
    1.0;                     !- Field 4

Schedule:Compact,
    Always Off,              !- Name
    Fraction,                !- Schedule Type Limits Name
    Through: 12/31,          !- Field 1
    For: AllDays,            !- Field 2
    Until: 24:00,            !- Field 3
    0.0;                     !- Field 4

Schedule:Compact,
    Heating Setpoint Schedule,  !- Name
    Temperature,             !- Schedule Type Limits Name
    Through: 12/31,          !- Field 1
    For: Weekdays,           !- Field 2
    Until: 05:00,            !- Field 3
    15.6,                    !- Field 4
    Until: 19:00,            !- Field 5
    21.0,                    !- Field 6
    Until: 24:00,            !- Field 7
    15.6,                    !- Field 8
    For SummerDesignDay,     !- Field 9
    Until: 24:00,            !- Field 10
    15.6,                    !- Field 11
    For: Saturday,           !- Field 12
    Until: 06:00,            !- Field 13
    15.6,                    !- Field 14
    Until: 17:00,            !- Field 15
    21.0,                    !- Field 16
    Until: 24:00,            !- Field 17
    15.6,                    !- Field 18
    For: WinterDesignDay,    !- Field 19
    Until: 24:00,            !- Field 20
    21.0,                    !- Field 21
    For: Sunday Holidays AllOtherDays,  !- Field 22
    Until: 24:00,            !- Field 23
    15.6;                    !- Field 24

Schedule:Compact,
    Cooling Setpoint Schedule,  !- Name
    Temperature,             !- Schedule Type Limits Name
    Through: 12/31,          !- Field 1
    For: Weekdays SummerDesignDay,  !- Field 2
    Until: 06:00,            !- Field 3
    30.0,                    !- Field 4
    Until: 22:00,            !- Field 5
    24.0,                    !- Field 6
    Until: 24:00,            !- Field 7
    30.0,                    !- Field 8
    For: Saturday,           !- Field 9
    Until: 06:00,            !- Field 10
    30.0,                    !- Field 11
    Until: 18:00,            !- Field 12
    24.0,                    !- Field 13
    Until: 24:00,            !- Field 14
    30.0,                    !- Field 15
    For WinterDesignDay,     !- Field 16
    Until: 24:00,            !- Field 17
    30.0,                    !- Field 18
    For: Sunday Holidays AllOtherDays,  !- Field 19
    Until: 24:00,            !- Field 20
    30.0;                    !- Field 21

Schedule:Compact,
    Office Activity Schedule,!- Name
    Any Number,              !- Schedule Type Limits Name
    Through: 12/31,          !- Field 1
    For: AllDays,            !- Field 2
    Until: 24:00,            !- Field 3
    120.;                    !- Field 4

Schedule:Compact,
    Office Work Eff. Schedule,  !- Name
    Fraction,                !- Schedule Type Limits Name
    Through: 12/31,          !- Field 1
    For: AllDays,            !- Field 2
    Until: 24:00,            !- Field 3
    0.0;                     !- Field 4

Schedule:Compact,
    Office Clothing Schedule,!- Name
    Any Number,              !- Schedule Type Limits Name
    Through: 04/30,          !- Field 1
    For: AllDays,            !- Field 2
    Until: 24:00,            !- Field 3
    1.0,                     !- Field 4
    Through: 09/30,          !- Field 5
    For: AllDays,            !- Field 6
    Until: 24:00,            !- Field 7
    0.5,                     !- Field 8
    Through: 12/31,          !- Field 9
    For: AllDays,            !- Field 10
    Until: 24:00,            !- Field 11
    1.0;                     !- Field 12


!-   ===========  ALL OBJECTS IN CLASS: MATERIAL ===========

Material,
    F08 Metal surface,       !- Name
    Smooth,                  !- Roughness
    0.0008,                  !- Thickness {m}
    45.28,                   !- Conductivity {W/m-K}
    7824,                    !- Density {kg/m3}
    500;                     !- Specific Heat {J/kg-K}

Material,
    I01 25mm insulation board,  !- Name
    MediumRough,             !- Roughness
    0.0254,                  !- Thickness {m}
    0.03,                    !- Conductivity {W/m-K}
    43,                      !- Density {kg/m3}
    1210;                    !- Specific Heat {J/kg-K}

Material,
    I02 50mm insulation board,  !- Name
    MediumRough,             !- Roughness
    0.0508,                  !- Thickness {m}
    0.03,                    !- Conductivity {W/m-K}
    43,                      !- Density {kg/m3}
    1210;                    !- Specific Heat {J/kg-K}

Material,
    G01a 19mm gypsum board,  !- Name
    MediumSmooth,            !- Roughness
    0.019,                   !- Thickness {m}
    0.16,                    !- Conductivity {W/m-K}
    800,                     !- Density {kg/m3}
    1090;                    !- Specific Heat {J/kg-K}

Material,
    M11 100mm lightweight concrete,  !- Name
    MediumRough,             !- Roughness
    0.1016,                  !- Thickness {m}
    0.53,                    !- Conductivity {W/m-K}
    1280,                    !- Density {kg/m3}
    840;                     !- Specific Heat {J/kg-K}

Material,
    F16 Acoustic tile,       !- Name
    MediumSmooth,            !- Roughness
    0.0191,                  !- Thickness {m}
    0.06,                    !- Conductivity {W/m-K}
    368,                     !- Density {kg/m3}
    590;                     !- Specific Heat {J/kg-K}

Material,
    M01 100mm brick,         !- Name
    MediumRough,             !- Roughness
    0.1016,                  !- Thickness {m}
    0.89,                    !- Conductivity {W/m-K}
    1920,                    !- Density {kg/m3}
    790;                     !- Specific Heat {J/kg-K}

Material,
    M15 200mm heavyweight concrete,  !- Name
    MediumRough,             !- Roughness
    0.2032,                  !- Thickness {m}
    1.95,                    !- Conductivity {W/m-K}
    2240,                    !- Density {kg/m3}
    900;                     !- Specific Heat {J/kg-K}

Material,
    M05 200mm concrete block,!- Name
    MediumRough,             !- Roughness
    0.2032,                  !- Thickness {m}
    1.11,                    !- Conductivity {W/m-K}
    800,                     !- Density {kg/m3}
    920;                     !- Specific Heat {J/kg-K}

Material,
    G05 25mm wood,           !- Name
    MediumSmooth,            !- Roughness
    0.0254,                  !- Thickness {m}
    0.15,                    !- Conductivity {W/m-K}
    608,                     !- Density {kg/m3}
    1630;                    !- Specific Heat {J/kg-K}


!-   ===========  ALL OBJECTS IN CLASS: MATERIAL:AIRGAP ===========

Material:AirGap,
    F04 Wall air space resistance,  !- Name
    0.15;                    !- Thermal Resistance {m2-K/W}

Material:AirGap,
    F05 Ceiling air space resistance,  !- Name
    0.18;                    !- Thermal Resistance {m2-K/W}


!-   ===========  ALL OBJECTS IN CLASS: WINDOWMATERIAL:GLAZING ===========

WindowMaterial:Glazing,
    Clear 3mm,               !- Name
    SpectralAverage,         !- Optical Data Type
    ,                        !- Window Glass Spectral Data Set Name
    0.003,                   !- Thickness {m}
    0.837,                   !- Solar Transmittance at Normal Incidence
    0.075,                   !- Front Side Solar Reflectance at Normal Incidence
    0.075,                   !- Back Side Solar Reflectance at Normal Incidence
    0.898,                   !- Visible Transmittance at Normal Incidence
    0.081,                   !- Front Side Visible Reflectance at Normal Incidence
    0.081,                   !- Back Side Visible Reflectance at Normal Incidence
    0,                       !- Infrared Transmittance at Normal Incidence
    0.84,                    !- Front Side Infrared Hemispherical Emissivity
    0.84,                    !- Back Side Infrared Hemispherical Emissivity
    0.9;                     !- Conductivity {W/m-K}


!-   ===========  ALL OBJECTS IN CLASS: WINDOWMATERIAL:GAS ===========

WindowMaterial:Gas,
    Air 13mm,                !- Name
    Air,                     !- Gas Type
    0.0127;                  !- Thickness {m}


!-   ===========  ALL OBJECTS IN CLASS: CONSTRUCTION ===========

Construction,
    Exterior Floor,          !- Name
    I02 50mm insulation board,  !- Outside Layer
    M15 200mm heavyweight concrete;  !- Layer 2

Construction,
    Interior Floor,          !- Name
    F16 Acoustic tile,       !- Outside Layer
    F05 Ceiling air space resistance,  !- Layer 2
    M11 100mm lightweight concrete;  !- Layer 3

Construction,
    Exterior Wall,           !- Name
    M01 100mm brick,         !- Outside Layer
    M15 200mm heavyweight concrete,  !- Layer 2
    I02 50mm insulation board,  !- Layer 3
    F04 Wall air space resistance,  !- Layer 4
    G01a 19mm gypsum board;  !- Layer 5

Construction,
    Interior Wall,           !- Name
    G01a 19mm gypsum board,  !- Outside Layer
    F04 Wall air space resistance,  !- Layer 2
    G01a 19mm gypsum board;  !- Layer 3

Construction,
    Exterior Roof,           !- Name
    M11 100mm lightweight concrete,  !- Outside Layer
    F05 Ceiling air space resistance,  !- Layer 2
    F16 Acoustic tile;       !- Layer 3

Construction,
    Interior Ceiling,        !- Name
    M11 100mm lightweight concrete,  !- Outside Layer
    F05 Ceiling air space resistance,  !- Layer 2
    F16 Acoustic tile;       !- Layer 3

Construction,
    Exterior Window,         !- Name
    Clear 3mm,               !- Outside Layer
    Air 13mm,                !- Layer 2
    Clear 3mm;               !- Layer 3

Construction,
    Interior Window,         !- Name
    Clear 3mm;               !- Outside Layer

Construction,
    Exterior Door,           !- Name
    F08 Metal surface,       !- Outside Layer
    I01 25mm insulation board;  !- Layer 2

Construction,
    Interior Door,           !- Name
    G05 25mm wood;           !- Outside Layer


!-   ===========  ALL OBJECTS IN CLASS: GLOBALGEOMETRYRULES ===========

GlobalGeometryRules,
    UpperLeftCorner,         !- Starting Vertex Position
    Counterclockwise,        !- Vertex Entry Direction
    Relative;                !- Coordinate System


!-   ===========  ALL OBJECTS IN CLASS: HVACTEMPLATE:THERMOSTAT ===========

HVACTemplate:Thermostat,
    Constant Setpoint Thermostat,  !- Name
    ,                        !- Heating Setpoint Schedule Name
    20,                      !- Constant Heating Setpoint {C}
    ,                        !- Cooling Setpoint Schedule Name
    25;                      !- Constant Cooling Setpoint {C}


!-   ===========  ALL OBJECTS IN CLASS: OUTPUT:VARIABLEDICTIONARY ===========

Output:VariableDictionary,
    IDF;                     !- Key Field


!-   ===========  ALL OBJECTS IN CLASS: OUTPUT:TABLE:SUMMARYREPORTS ===========

Output:Table:SummaryReports,
    AllSummary;              !- Report 1 Name


!-   ===========  ALL OBJECTS IN CLASS: OUTPUTCONTROL:TABLE:STYLE ===========

OutputControl:Table:Style,
    HTML,                    !- Column Separator
    JtoKWH;                  !- Unit Conversion


!-   ===========  ALL OBJECTS IN CLASS: OUTPUT:VARIABLE ===========

Output:Variable,
    *,                       !- Key Value
    Site Outdoor Air Drybulb Temperature,  !- Variable Name
    Hourly;                  !- Reporting Frequency

Output:Variable,
    *,                       !- Key Value
    Zone Mean Air Temperature,  !- Variable Name
    Hourly;                  !- Reporting Frequency

Output:Variable,
    *,                       !- Key Value
    Zone Ideal Loads Zone Total Heating Rate,  !- Variable Name
    Hourly;                  !- Reporting Frequency

Output:Variable,
    *,                       !- Key Value
    Zone Ideal Loads Zone Total Cooling Rate,  !- Variable Name
    Hourly;                  !- Reporting Frequency

!- ======= AUTO-GENERATED ZONES =======
Zone,
    L1_Zone_1,
    0.0,
    0.0,
    0.0,
    0.0,
    ,
    1;
Zone,
    L1_Zone_2,
    0.0,
    0.0,
    0.0,
    0.0,
    ,
    1;
Zone,
    L1_Zone_3,
    0.0,
    0.0,
    0.0,
    0.0,
    ,
    1;
Zone,
    L1_Zone_4,
    0.0,
    0.0,
    0.0,
    0.0,
    ,
    1;
Zone,
    L1_Zone_5,
    0.0,
    0.0,
    0.0,
    0.0,
    ,
    1;
Zone,
    L1_Zone_6,
    0.0,
    0.0,
    0.0,
    0.0,
    ,
    1;
Zone,
    L1_Zone_7,
    0.0,
    0.0,
    0.0,
    0.0,
    ,
    1;
Zone,
    L1_Zone_8,
    0.0,
    0.0,
    0.0,
    0.0,
    ,
    1;
Zone,
    L1_Zone_9,
    0.0,
    0.0,
    0.0,
    0.0,
    ,
    1;
Zone,
    L1_Zone_10,
    0.0,
    0.0,
    0.0,
    0.0,
    ,
    1;
Zone,
    L1_Zone_11,
    0.0,
    0.0,
    0.0,
    0.0,
    ,
    1;
Zone,
    L1_Zone_19,
    0.0,
    0.0,
    0.0,
    0.0,
    ,
    1;
Zone,
    L1_Zone_13,
    0.0,
    0.0,
    0.0,
    0.0,
    ,
    1;
Zone,
    L1_Zone_14,
    0.0,
    0.0,
    0.0,
    0.0,
    ,
    1;
Zone,
    L1_Zone_15,
    0.0,
    0.0,
    0.0,
    0.0,
    ,
    1;
Zone,
    L1_Zone_16,
    0.0,
    0.0,
    0.0,
    0.0,
    ,
    1;
Zone,
    L1_Zone_17,
    0.0,
    0.0,
    0.0,
    0.0,
    ,
    1;
Zone,
    L1_Zone_18,
    0.0,
    0.0,
    0.0,
    0.0,
    ,
    1;
Zone,
    L1_Zone_12,
    0.0,
    0.0,
    0.0,
    0.0,
    ,
    1;
Zone,
    L2_Zone_20,
    0.0,
    0.0,
    0.0,
    0.0,
    ,
    1;
Zone,
    L2_Zone_21,
    0.0,
    0.0,
    0.0,
    0.0,
    ,
    1;
Zone,
    L2_Zone_22,
    0.0,
    0.0,
    0.0,
    0.0,
    ,
    1;
Zone,
    L2_Zone_25,
    0.0,
    0.0,
    0.0,
    0.0,
    ,
    1;
Zone,
    L2_Zone_24,
    0.0,
    0.0,
    0.0,
    0.0,
    ,
    1;
Zone,
    L2_Zone_23,
    0.0,
    0.0,
    0.0,
    0.0,
    ,
    1;
Zone,
    L2_Zone_27,
    0.0,
    0.0,
    0.0,
    0.0,
    ,
    1;
Zone,
    L2_Zone_28,
    0.0,
    0.0,
    0.0,
    0.0,
    ,
    1;
Zone,
    L2_Zone_29,
    0.0,
    0.0,
    0.0,
    0.0,
    ,
    1;
Zone,
    L2_Zone_30,
    0.0,
    0.0,
    0.0,
    0.0,
    ,
    1;
Zone,
    L2_Zone_31,
    0.0,
    0.0,
    0.0,
    0.0,
    ,
    1;
Zone,
    L2_Zone_32,
    0.0,
    0.0,
    0.0,
    0.0,
    ,
    1;
Zone,
    L2_Zone_34,
    0.0,
    0.0,
    0.0,
    0.0,
    ,
    1;
Zone,
    L2_Zone_35,
    0.0,
    0.0,
    0.0,
    0.0,
    ,
    1;
Zone,
    L2_Zone_36,
    0.0,
    0.0,
    0.0,
    0.0,
    ,
    1;
Zone,
    L2_Zone_37,
    0.0,
    0.0,
    0.0,
    0.0,
    ,
    1;
Zone,
    L2_Zone_38,
    0.0,
    0.0,
    0.0,
    0.0,
    ,
    1;
Zone,
    L2_Zone_39,
    0.0,
    0.0,
    0.0,
    0.0,
    ,
    1;
Zone,
    L2_Zone_40,
    0.0,
    0.0,
    0.0,
    0.0,
    ,
    1;
Zone,
    L2_Zone_42,
    0.0,
    0.0,
    0.0,
    0.0,
    ,
    1;
Zone,
    L2_Zone_43,
    0.0,
    0.0,
    0.0,
    0.0,
    ,
    1;
Zone,
    L2_Zone_44,
    0.0,
    0.0,
    0.0,
    0.0,
    ,
    1;
Zone,
    L3_Zone_45,
    0.0,
    0.0,
    0.0,
    0.0,
    ,
    1;
Zone,
    L3_Zone_46,
    0.0,
    0.0,
    0.0,
    0.0,
    ,
    1;
Zone,
    L3_Zone_47,
    0.0,
    0.0,
    0.0,
    0.0,
    ,
    1;
Zone,
    L3_Zone_49,
    0.0,
    0.0,
    0.0,
    0.0,
    ,
    1;
Zone,
    L3_Zone_50,
    0.0,
    0.0,
    0.0,
    0.0,
    ,
    1;
Zone,
    L3_Zone_51,
    0.0,
    0.0,
    0.0,
    0.0,
    ,
    1;
Zone,
    L3_Zone_52,
    0.0,
    0.0,
    0.0,
    0.0,
    ,
    1;
Zone,
    L3_Zone_53,
    0.0,
    0.0,
    0.0,
    0.0,
    ,
    1;
Zone,
    L3_Zone_54,
    0.0,
    0.0,
    0.0,
    0.0,
    ,
    1;
Zone,
    L3_Zone_55,
    0.0,
    0.0,
    0.0,
    0.0,
    ,
    1;
Zone,
    L3_Zone_56,
    0.0,
    0.0,
    0.0,
    0.0,
    ,
    1;
Zone,
    L3_Zone_57,
    0.0,
    0.0,
    0.0,
    0.0,
    ,
    1;
Zone,
    L4_Zone_58,
    0.0,
    0.0,
    0.0,
    0.0,
    ,
    1;
Zone,
    L4_Zone_60,
    0.0,
    0.0,
    0.0,
    0.0,
    ,
    1;
Zone,
    L4_Zone_61,
    0.0,
    0.0,
    0.0,
    0.0,
    ,
    1;
Zone,
    L2_Zone_26,
    0.0,
    0.0,
    0.0,
    0.0,
    ,
    1;
!- ======= AUTO-GENERATED BUILDINGSURFACE:DETAILED =======
BuildingSurface:Detailed,
    L1_Zone_1_Floor_1,
    Floor,
    Exterior Floor,
    L1_Zone_1,
    ,
    Ground,
    ,
    NoSun,
    NoWind,
    ,
    4,
    -32.9942,
    12.9338,
    0.0000,
    -32.9942,
    10.0038,
    0.0000,
    -34.4932,
    10.0038,
    0.0000,
    -34.4932,
    12.9338,
    0.0000;
BuildingSurface:Detailed,
    L1_Zone_1_Floor_2,
    Floor,
    Exterior Floor,
    L1_Zone_1,
    ,
    Ground,
    ,
    NoSun,
    NoWind,
    ,
    4,
    -31.2942,
    14.5728,
    0.0000,
    -31.2942,
    12.9338,
    0.0000,
    -34.4932,
    12.9338,
    0.0000,
    -34.4932,
    14.5728,
    0.0000;
BuildingSurface:Detailed,
    L1_Zone_1_Ceiling_1,
    Ceiling,
    Interior Ceiling,
    L1_Zone_1,
    ,
    Surface,
    L2_Zone_20_Floor_3,
    NoSun,
    NoWind,
    ,
    4,
    -34.4932,
    12.9338,
    6.8500,
    -34.4932,
    10.0038,
    6.8500,
    -32.9942,
    10.0038,
    6.8500,
    -32.9942,
    12.9338,
    6.8500;
BuildingSurface:Detailed,
    L1_Zone_1_Ceiling_2,
    Ceiling,
    Interior Ceiling,
    L1_Zone_1,
    ,
    Surface,
    L2_Zone_20_Floor_4,
    NoSun,
    NoWind,
    ,
    4,
    -34.4932,
    14.5728,
    6.8500,
    -34.4932,
    12.9338,
    6.8500,
    -31.2942,
    12.9338,
    6.8500,
    -31.2942,
    14.5728,
    6.8500;
BuildingSurface:Detailed,
    L1_Zone_1_Wall_1,
    Wall,
    Exterior Wall,
    L1_Zone_1,
    ,
    Outdoors,
    ,
    SunExposed,
    WindExposed,
    ,
    4,
    -31.2942,
    14.5728,
    6.8500,
    -31.2942,
    14.5728,
    0.0000,
    -34.4932,
    14.5728,
    0.0000,
    -34.4932,
    14.5728,
    6.8500;
BuildingSurface:Detailed,
    L1_Zone_1_Wall_2,
    Wall,
    Exterior Wall,
    L1_Zone_1,
    ,
    Outdoors,
    ,
    SunExposed,
    WindExposed,
    ,
    4,
    -34.4932,
    14.5728,
    6.8500,
    -34.4932,
    14.5728,
    0.0000,
    -34.4932,
    10.0038,
    0.0000,
    -34.4932,
    10.0038,
    6.8500;
BuildingSurface:Detailed,
    L1_Zone_1_Wall_3,
    Wall,
    Interior Wall,
    L1_Zone_1,
    ,
    Surface,
    L1_Zone_2_Wall_7,
    NoSun,
    NoWind,
    ,
    4,
    -34.4932,
    10.0038,
    6.8500,
    -34.4932,
    10.0038,
    0.0000,
    -32.9942,
    10.0038,
    0.0000,
    -32.9942,
    10.0038,
    6.8500;
BuildingSurface:Detailed,
    L1_Zone_1_Wall_4,
    Wall,
    Interior Wall,
    L1_Zone_1,
    ,
    Surface,
    L1_Zone_2_Wall_6,
    NoSun,
    NoWind,
    ,
    4,
    -32.9942,
    10.0038,
    6.8500,
    -32.9942,
    10.0038,
    0.0000,
    -32.9942,
    12.8328,
    0.0000,
    -32.9942,
    12.8328,
    6.8500;
BuildingSurface:Detailed,
    L1_Zone_1_Wall_5,
    Wall,
    Interior Wall,
    L1_Zone_1,
    ,
    Adiabatic,
    ,
    NoSun,
    NoWind,
    ,
    4,
    -32.9942,
    12.8328,
    6.8500,
    -32.9942,
    12.8328,
    0.0000,
    -32.9942,
    12.9338,
    0.0000,
    -32.9942,
    12.9338,
    6.8500;
BuildingSurface:Detailed,
    L1_Zone_1_Wall_6,
    Wall,
    Interior Wall,
    L1_Zone_1,
    ,
    Adiabatic,
    ,
    NoSun,
    NoWind,
    ,
    4,
    -32.9942,
    12.9338,
    6.8500,
    -32.9942,
    12.9338,
    0.0000,
    -32.8932,
    12.9338,
    0.0000,
    -32.8932,
    12.9338,
    6.8500;
BuildingSurface:Detailed,
    L1_Zone_1_Wall_7,
    Wall,
    Interior Wall,
    L1_Zone_1,
    ,
    Surface,
    L1_Zone_2_Wall_4,
    NoSun,
    NoWind,
    ,
    4,
    -32.8932,
    12.9338,
    6.8500,
    -32.8932,
    12.9338,
    0.0000,
    -31.2942,
    12.9338,
    0.0000,
    -31.2942,
    12.9338,
    6.8500;
BuildingSurface:Detailed,
    L1_Zone_1_Wall_8,
    Wall,
    Interior Wall,
    L1_Zone_1,
    ,
    Surface,
    L1_Zone_3_Wall_4,
    NoSun,
    NoWind,
    ,
    4,
    -31.2942,
    12.9338,
    6.8500,
    -31.2942,
    12.9338,
    0.0000,
    -31.2942,
    14.5728,
    0.0000,
    -31.2942,
    14.5728,
    6.8500;
BuildingSurface:Detailed,
    L1_Zone_2_Floor_1,
    Floor,
    Exterior Floor,
    L1_Zone_2,
    ,
    Ground,
    ,
    NoSun,
    NoWind,
    ,
    4,
    -31.2942,
    9.9028,
    0.0000,
    -31.2942,
    8.1738,
    0.0000,
    -34.4932,
    8.1738,
    0.0000,
    -34.4932,
    9.9028,
    0.0000;
BuildingSurface:Detailed,
    L1_Zone_2_Floor_2,
    Floor,
    Exterior Floor,
    L1_Zone_2,
    ,
    Ground,
    ,
    NoSun,
    NoWind,
    ,
    4,
    -31.2942,
    12.8328,
    0.0000,
    -31.2942,
    9.9028,
    0.0000,
    -32.8932,
    9.9028,
    0.0000,
    -32.8932,
    12.8328,
    0.0000;
BuildingSurface:Detailed,
    L1_Zone_2_Ceiling_1,
    Ceiling,
    Interior Ceiling,
    L1_Zone_2,
    ,
    Surface,
    L2_Zone_20_Floor_1,
    NoSun,
    NoWind,
    ,
    4,
    -34.4932,
    9.9028,
    6.8500,
    -34.4932,
    8.1810,
    6.8500,
    -31.2942,
    8.1810,
    6.8500,
    -31.2942,
    9.9028,
    6.8500;
BuildingSurface:Detailed,
    L1_Zone_2_Ceiling_2,
    Ceiling,
    Interior Ceiling,
    L1_Zone_2,
    ,
    Surface,
    L2_Zone_20_Floor_2,
    NoSun,
    NoWind,
    ,
    4,
    -32.8932,
    12.8328,
    6.8500,
    -32.8932,
    9.9028,
    6.8500,
    -31.2942,
    9.9028,
    6.8500,
    -31.2942,
    12.8328,
    6.8500;
BuildingSurface:Detailed,
    L1_Zone_2_Roof_1,
    Roof,
    Interior Ceiling,
    L1_Zone_2,
    ,
    Adiabatic,
    ,
    NoSun,
    NoWind,
    ,
    4,
    -34.4932,
    8.1810,
    6.8500,
    -34.4932,
    8.1738,
    6.8500,
    -31.2942,
    8.1738,
    6.8500,
    -31.2942,
    8.1810,
    6.8500;
BuildingSurface:Detailed,
    L1_Zone_2_Wall_1,
    Wall,
    Exterior Wall,
    L1_Zone_2,
    ,
    Outdoors,
    ,
    SunExposed,
    WindExposed,
    ,
    4,
    -34.4932,
    9.9028,
    6.8500,
    -34.4932,
    9.9028,
    0.0000,
    -34.4932,
    8.1738,
    0.0000,
    -34.4932,
    8.1738,
    6.8500;
BuildingSurface:Detailed,
    L1_Zone_2_Wall_2,
    Wall,
    Interior Wall,
    L1_Zone_2,
    ,
    Surface,
    L1_Zone_4_Wall_4,
    NoSun,
    NoWind,
    ,
    4,
    -34.4932,
    8.1738,
    6.8500,
    -34.4932,
    8.1738,
    0.0000,
    -31.2942,
    8.1738,
    0.0000,
    -31.2942,
    8.1738,
    6.8500;
BuildingSurface:Detailed,
    L1_Zone_2_Wall_3,
    Wall,
    Interior Wall,
    L1_Zone_2,
    ,
    Surface,
    L1_Zone_3_Wall_2,
    NoSun,
    NoWind,
    ,
    4,
    -31.2942,
    8.1738,
    6.8500,
    -31.2942,
    8.1738,
    0.0000,
    -31.2942,
    12.8328,
    0.0000,
    -31.2942,
    12.8328,
    6.8500;
BuildingSurface:Detailed,
    L1_Zone_2_Wall_4,
    Wall,
    Interior Wall,
    L1_Zone_2,
    ,
    Surface,
    L1_Zone_1_Wall_7,
    NoSun,
    NoWind,
    ,
    4,
    -31.2942,
    12.8328,
    6.8500,
    -31.2942,
    12.8328,
    0.0000,
    -32.8932,
    12.8328,
    0.0000,
    -32.8932,
    12.8328,
    6.8500;
BuildingSurface:Detailed,
    L1_Zone_2_Wall_5,
    Wall,
    Interior Wall,
    L1_Zone_2,
    ,
    Adiabatic,
    ,
    NoSun,
    NoWind,
    ,
    4,
    -32.8932,
    10.0038,
    6.8500,
    -32.8932,
    10.0038,
    0.0000,
    -32.8932,
    9.9028,
    0.0000,
    -32.8932,
    9.9028,
    6.8500;
BuildingSurface:Detailed,
    L1_Zone_2_Wall_6,
    Wall,
    Interior Wall,
    L1_Zone_2,
    ,
    Surface,
    L1_Zone_1_Wall_4,
    NoSun,
    NoWind,
    ,
    4,
    -32.8932,
    12.8328,
    6.8500,
    -32.8932,
    12.8328,
    0.0000,
    -32.8932,
    10.0038,
    0.0000,
    -32.8932,
    10.0038,
    6.8500;
BuildingSurface:Detailed,
    L1_Zone_2_Wall_7,
    Wall,
    Interior Wall,
    L1_Zone_2,
    ,
    Surface,
    L1_Zone_1_Wall_3,
    NoSun,
    NoWind,
    ,
    4,
    -32.9942,
    9.9028,
    6.8500,
    -32.9942,
    9.9028,
    0.0000,
    -34.4932,
    9.9028,
    0.0000,
    -34.4932,
    9.9028,
    6.8500;
BuildingSurface:Detailed,
    L1_Zone_2_Wall_8,
    Wall,
    Interior Wall,
    L1_Zone_2,
    ,
    Adiabatic,
    ,
    NoSun,
    NoWind,
    ,
    4,
    -32.8932,
    9.9028,
    6.8500,
    -32.8932,
    9.9028,
    0.0000,
    -32.9942,
    9.9028,
    0.0000,
    -32.9942,
    9.9028,
    6.8500;
BuildingSurface:Detailed,
    L1_Zone_3_Floor_1,
    Floor,
    Exterior Floor,
    L1_Zone_3,
    ,
    Ground,
    ,
    NoSun,
    NoWind,
    ,
    4,
    -27.9942,
    14.5728,
    0.0000,
    -27.9942,
    8.1738,
    0.0000,
    -31.1932,
    8.1738,
    0.0000,
    -31.1932,
    14.5728,
    0.0000;
BuildingSurface:Detailed,
    L1_Zone_3_Ceiling_1,
    Ceiling,
    Interior Ceiling,
    L1_Zone_3,
    ,
    Surface,
    L2_Zone_21_Floor_5,
    NoSun,
    NoWind,
    ,
    4,
    -31.1863,
    14.5728,
    6.8500,
    -31.1863,
    8.1738,
    6.8500,
    -27.9942,
    8.1738,
    6.8500,
    -27.9942,
    14.5728,
    6.8500;
BuildingSurface:Detailed,
    L1_Zone_3_Roof_1,
    Roof,
    Interior Ceiling,
    L1_Zone_3,
    ,
    Adiabatic,
    ,
    NoSun,
    NoWind,
    ,
    4,
    -31.1932,
    14.5728,
    6.8500,
    -31.1932,
    8.1738,
    6.8500,
    -31.1863,
    8.1738,
    6.8500,
    -31.1863,
    14.5728,
    6.8500;
BuildingSurface:Detailed,
    L1_Zone_3_Wall_1,
    Wall,
    Exterior Wall,
    L1_Zone_3,
    ,
    Outdoors,
    ,
    SunExposed,
    WindExposed,
    ,
    4,
    -27.9942,
    14.5728,
    6.8500,
    -27.9942,
    14.5728,
    0.0000,
    -31.1932,
    14.5728,
    0.0000,
    -31.1932,
    14.5728,
    6.8500;
BuildingSurface:Detailed,
    L1_Zone_3_Wall_2,
    Wall,
    Interior Wall,
    L1_Zone_3,
    ,
    Surface,
    L1_Zone_2_Wall_3,
    NoSun,
    NoWind,
    ,
    4,
    -31.1932,
    12.8328,
    6.8500,
    -31.1932,
    12.8328,
    0.0000,
    -31.1932,
    8.1738,
    0.0000,
    -31.1932,
    8.1738,
    6.8500;
BuildingSurface:Detailed,
    L1_Zone_3_Wall_3,
    Wall,
    Interior Wall,
    L1_Zone_3,
    ,
    Adiabatic,
    ,
    NoSun,
    NoWind,
    ,
    4,
    -31.1932,
    12.9338,
    6.8500,
    -31.1932,
    12.9338,
    0.0000,
    -31.1932,
    12.8328,
    0.0000,
    -31.1932,
    12.8328,
    6.8500;
BuildingSurface:Detailed,
    L1_Zone_3_Wall_4,
    Wall,
    Interior Wall,
    L1_Zone_3,
    ,
    Surface,
    L1_Zone_1_Wall_8,
    NoSun,
    NoWind,
    ,
    4,
    -31.1932,
    14.5728,
    6.8500,
    -31.1932,
    14.5728,
    0.0000,
    -31.1932,
    12.9338,
    0.0000,
    -31.1932,
    12.9338,
    6.8500;
BuildingSurface:Detailed,
    L1_Zone_3_Wall_5,
    Wall,
    Interior Wall,
    L1_Zone_3,
    ,
    Surface,
    L1_Zone_4_Wall_6,
    NoSun,
    NoWind,
    ,
    4,
    -31.1932,
    8.1738,
    6.8500,
    -31.1932,
    8.1738,
    0.0000,
    -27.9942,
    8.1738,
    0.0000,
    -27.9942,
    8.1738,
    6.8500;
BuildingSurface:Detailed,
    L1_Zone_3_Wall_6,
    Wall,
    Interior Wall,
    L1_Zone_3,
    ,
    Surface,
    L1_Zone_8_Wall_3,
    NoSun,
    NoWind,
    ,
    4,
    -27.9942,
    8.1738,
    6.8500,
    -27.9942,
    8.1738,
    0.0000,
    -27.9942,
    14.5728,
    0.0000,
    -27.9942,
    14.5728,
    6.8500;
BuildingSurface:Detailed,
    L1_Zone_4_Floor_1,
    Floor,
    Exterior Floor,
    L1_Zone_4,
    ,
    Ground,
    ,
    NoSun,
    NoWind,
    ,
    4,
    -27.9942,
    8.0728,
    0.0000,
    -27.9942,
    3.6737,
    0.0000,
    -34.4932,
    3.6737,
    0.0000,
    -34.4932,
    8.0728,
    0.0000;
BuildingSurface:Detailed,
    L1_Zone_4_Ceiling_1,
    Ceiling,
    Interior Ceiling,
    L1_Zone_4,
    ,
    Surface,
    L2_Zone_21_Floor_4,
    NoSun,
    NoWind,
    ,
    4,
    -34.4932,
    8.0728,
    6.8500,
    -34.4932,
    3.6737,
    6.8500,
    -27.9942,
    3.6737,
    6.8500,
    -27.9942,
    8.0728,
    6.8500;
BuildingSurface:Detailed,
    L1_Zone_4_Wall_1,
    Wall,
    Exterior Wall,
    L1_Zone_4,
    ,
    Outdoors,
    ,
    SunExposed,
    WindExposed,
    ,
    4,
    -34.4932,
    8.0728,
    6.8500,
    -34.4932,
    8.0728,
    0.0000,
    -34.4932,
    3.6737,
    0.0000,
    -34.4932,
    3.6737,
    6.8500;
BuildingSurface:Detailed,
    L1_Zone_4_Wall_2,
    Wall,
    Interior Wall,
    L1_Zone_4,
    ,
    Surface,
    L1_Zone_5_Wall_4,
    NoSun,
    NoWind,
    ,
    4,
    -34.4932,
    3.6737,
    6.8500,
    -34.4932,
    3.6737,
    0.0000,
    -27.9942,
    3.6737,
    0.0000,
    -27.9942,
    3.6737,
    6.8500;
BuildingSurface:Detailed,
    L1_Zone_4_Wall_3,
    Wall,
    Interior Wall,
    L1_Zone_4,
    ,
    Surface,
    L1_Zone_8_Wall_5,
    NoSun,
    NoWind,
    ,
    4,
    -27.9942,
    3.6737,
    6.8500,
    -27.9942,
    3.6737,
    0.0000,
    -27.9942,
    8.0728,
    0.0000,
    -27.9942,
    8.0728,
    6.8500;
BuildingSurface:Detailed,
    L1_Zone_4_Wall_4,
    Wall,
    Interior Wall,
    L1_Zone_4,
    ,
    Surface,
    L1_Zone_2_Wall_2,
    NoSun,
    NoWind,
    ,
    4,
    -31.2942,
    8.0728,
    6.8500,
    -31.2942,
    8.0728,
    0.0000,
    -34.4932,
    8.0728,
    0.0000,
    -34.4932,
    8.0728,
    6.8500;
BuildingSurface:Detailed,
    L1_Zone_4_Wall_5,
    Wall,
    Interior Wall,
    L1_Zone_4,
    ,
    Adiabatic,
    ,
    NoSun,
    NoWind,
    ,
    4,
    -31.1932,
    8.0728,
    6.8500,
    -31.1932,
    8.0728,
    0.0000,
    -31.2942,
    8.0728,
    0.0000,
    -31.2942,
    8.0728,
    6.8500;
BuildingSurface:Detailed,
    L1_Zone_4_Wall_6,
    Wall,
    Interior Wall,
    L1_Zone_4,
    ,
    Surface,
    L1_Zone_3_Wall_5,
    NoSun,
    NoWind,
    ,
    4,
    -27.9942,
    8.0728,
    6.8500,
    -27.9942,
    8.0728,
    0.0000,
    -31.1932,
    8.0728,
    0.0000,
    -31.1932,
    8.0728,
    6.8500;
BuildingSurface:Detailed,
    L1_Zone_5_Floor_1,
    Floor,
    Exterior Floor,
    L1_Zone_5,
    ,
    Ground,
    ,
    NoSun,
    NoWind,
    ,
    4,
    -27.9942,
    3.5727,
    0.0000,
    -27.9942,
    1.6737,
    0.0000,
    -34.4932,
    1.6737,
    0.0000,
    -34.4932,
    3.5727,
    0.0000;
BuildingSurface:Detailed,
    L1_Zone_5_Ceiling_1,
    Ceiling,
    Interior Ceiling,
    L1_Zone_5,
    ,
    Surface,
    L2_Zone_21_Floor_3,
    NoSun,
    NoWind,
    ,
    4,
    -34.4932,
    3.5727,
    6.8500,
    -34.4932,
    1.6737,
    6.8500,
    -27.9942,
    1.6737,
    6.8500,
    -27.9942,
    3.5727,
    6.8500;
BuildingSurface:Detailed,
    L1_Zone_5_Wall_1,
    Wall,
    Exterior Wall,
    L1_Zone_5,
    ,
    Outdoors,
    ,
    SunExposed,
    WindExposed,
    ,
    4,
    -34.4932,
    3.5727,
    6.8500,
    -34.4932,
    3.5727,
    0.0000,
    -34.4932,
    1.6737,
    0.0000,
    -34.4932,
    1.6737,
    6.8500;
BuildingSurface:Detailed,
    L1_Zone_5_Wall_2,
    Wall,
    Interior Wall,
    L1_Zone_5,
    ,
    Surface,
    L1_Zone_6_Wall_4,
    NoSun,
    NoWind,
    ,
    4,
    -34.4932,
    1.6737,
    6.8500,
    -34.4932,
    1.6737,
    0.0000,
    -27.9942,
    1.6737,
    0.0000,
    -27.9942,
    1.6737,
    6.8500;
BuildingSurface:Detailed,
    L1_Zone_5_Wall_3,
    Wall,
    Interior Wall,
    L1_Zone_5,
    ,
    Surface,
    L1_Zone_8_Wall_8,
    NoSun,
    NoWind,
    ,
    4,
    -27.9942,
    1.6737,
    6.8500,
    -27.9942,
    1.6737,
    0.0000,
    -27.9942,
    3.5727,
    0.0000,
    -27.9942,
    3.5727,
    6.8500;
BuildingSurface:Detailed,
    L1_Zone_5_Wall_4,
    Wall,
    Interior Wall,
    L1_Zone_5,
    ,
    Surface,
    L1_Zone_4_Wall_2,
    NoSun,
    NoWind,
    ,
    4,
    -27.9942,
    3.5727,
    6.8500,
    -27.9942,
    3.5727,
    0.0000,
    -34.4932,
    3.5727,
    0.0000,
    -34.4932,
    3.5727,
    6.8500;
BuildingSurface:Detailed,
    L1_Zone_6_Floor_1,
    Floor,
    Exterior Floor,
    L1_Zone_6,
    ,
    Ground,
    ,
    NoSun,
    NoWind,
    ,
    4,
    -27.9942,
    1.5727,
    0.0000,
    -27.9942,
    -1.8263,
    0.0000,
    -34.4932,
    -1.8263,
    0.0000,
    -34.4932,
    1.5727,
    0.0000;
BuildingSurface:Detailed,
    L1_Zone_6_Ceiling_1,
    Ceiling,
    Interior Ceiling,
    L1_Zone_6,
    ,
    Surface,
    L2_Zone_21_Floor_2,
    NoSun,
    NoWind,
    ,
    4,
    -34.4932,
    1.5727,
    6.8500,
    -34.4932,
    -1.8263,
    6.8500,
    -27.9942,
    -1.8263,
    6.8500,
    -27.9942,
    1.5727,
    6.8500;
BuildingSurface:Detailed,
    L1_Zone_6_Wall_1,
    Wall,
    Exterior Wall,
    L1_Zone_6,
    ,
    Outdoors,
    ,
    SunExposed,
    WindExposed,
    ,
    4,
    -34.4932,
    1.5727,
    6.8500,
    -34.4932,
    1.5727,
    0.0000,
    -34.4932,
    -1.8263,
    0.0000,
    -34.4932,
    -1.8263,
    6.8500;
BuildingSurface:Detailed,
    L1_Zone_6_Wall_2,
    Wall,
    Interior Wall,
    L1_Zone_6,
    ,
    Surface,
    L1_Zone_7_Wall_3,
    NoSun,
    NoWind,
    ,
    4,
    -34.4932,
    -1.8263,
    6.8500,
    -34.4932,
    -1.8263,
    0.0000,
    -27.9942,
    -1.8263,
    0.0000,
    -27.9942,
    -1.8263,
    6.8500;
BuildingSurface:Detailed,
    L1_Zone_6_Wall_3,
    Wall,
    Interior Wall,
    L1_Zone_6,
    ,
    Surface,
    L1_Zone_8_Wall_11,
    NoSun,
    NoWind,
    ,
    4,
    -27.9942,
    -1.8263,
    6.8500,
    -27.9942,
    -1.8263,
    0.0000,
    -27.9942,
    1.5727,
    0.0000,
    -27.9942,
    1.5727,
    6.8500;
BuildingSurface:Detailed,
    L1_Zone_6_Wall_4,
    Wall,
    Interior Wall,
    L1_Zone_6,
    ,
    Surface,
    L1_Zone_5_Wall_2,
    NoSun,
    NoWind,
    ,
    4,
    -27.9942,
    1.5727,
    6.8500,
    -27.9942,
    1.5727,
    0.0000,
    -34.4932,
    1.5727,
    0.0000,
    -34.4932,
    1.5727,
    6.8500;
BuildingSurface:Detailed,
    L1_Zone_7_Floor_1,
    Floor,
    Exterior Floor,
    L1_Zone_7,
    ,
    Ground,
    ,
    NoSun,
    NoWind,
    ,
    4,
    -27.9942,
    -1.9273,
    0.0000,
    -27.9942,
    -5.8263,
    0.0000,
    -34.4932,
    -5.8263,
    0.0000,
    -34.4932,
    -1.9273,
    0.0000;
BuildingSurface:Detailed,
    L1_Zone_7_Ceiling_1,
    Ceiling,
    Interior Ceiling,
    L1_Zone_7,
    ,
    Surface,
    L2_Zone_21_Floor_1,
    NoSun,
    NoWind,
    ,
    4,
    -34.4932,
    -1.9273,
    6.8500,
    -34.4932,
    -5.8263,
    6.8500,
    -27.9942,
    -5.8263,
    6.8500,
    -27.9942,
    -1.9273,
    6.8500;
BuildingSurface:Detailed,
    L1_Zone_7_Wall_1,
    Wall,
    Exterior Wall,
    L1_Zone_7,
    ,
    Outdoors,
    ,
    SunExposed,
    WindExposed,
    ,
    4,
    -34.4932,
    -5.8263,
    6.8500,
    -34.4932,
    -5.8263,
    0.0000,
    -27.9942,
    -5.8263,
    0.0000,
    -27.9942,
    -5.8263,
    6.8500;
BuildingSurface:Detailed,
    L1_Zone_7_Wall_2,
    Wall,
    Interior Wall,
    L1_Zone_7,
    ,
    Surface,
    L1_Zone_8_Wall_13,
    NoSun,
    NoWind,
    ,
    4,
    -27.9942,
    -5.8263,
    6.8500,
    -27.9942,
    -5.8263,
    0.0000,
    -27.9942,
    -1.9273,
    0.0000,
    -27.9942,
    -1.9273,
    6.8500;
BuildingSurface:Detailed,
    L1_Zone_7_Wall_3,
    Wall,
    Interior Wall,
    L1_Zone_7,
    ,
    Surface,
    L1_Zone_6_Wall_2,
    NoSun,
    NoWind,
    ,
    4,
    -27.9942,
    -1.9273,
    6.8500,
    -27.9942,
    -1.9273,
    0.0000,
    -34.4932,
    -1.9273,
    0.0000,
    -34.4932,
    -1.9273,
    6.8500;
BuildingSurface:Detailed,
    L1_Zone_7_Wall_4,
    Wall,
    Exterior Wall,
    L1_Zone_7,
    ,
    Outdoors,
    ,
    SunExposed,
    WindExposed,
    ,
    4,
    -34.4932,
    -1.9273,
    6.8500,
    -34.4932,
    -1.9273,
    0.0000,
    -34.4932,
    -5.8263,
    0.0000,
    -34.4932,
    -5.8263,
    6.8500;
BuildingSurface:Detailed,
    L1_Zone_8_Floor_1,
    Floor,
    Exterior Floor,
    L1_Zone_8,
    ,
    Ground,
    ,
    NoSun,
    NoWind,
    ,
    4,
    -9.9944,
    14.5728,
    0.0000,
    -9.9944,
    4.9728,
    0.0000,
    -27.8932,
    4.9728,
    0.0000,
    -27.8932,
    14.5728,
    0.0000;
BuildingSurface:Detailed,
    L1_Zone_8_Floor_2,
    Floor,
    Exterior Floor,
    L1_Zone_8,
    ,
    Ground,
    ,
    NoSun,
    NoWind,
    ,
    4,
    2.0058,
    -0.8262,
    0.0000,
    2.0058,
    -5.8263,
    0.0000,
    -27.8932,
    -5.8263,
    0.0000,
    -27.8932,
    -0.8262,
    0.0000;
BuildingSurface:Detailed,
    L1_Zone_8_Floor_3,
    Floor,
    Exterior Floor,
    L1_Zone_8,
    ,
    Ground,
    ,
    NoSun,
    NoWind,
    ,
    4,
    7.4058,
    4.9728,
    0.0000,
    7.4058,
    -0.8262,
    0.0000,
    -27.8932,
    -0.8262,
    0.0000,
    -27.8932,
    4.9728,
    0.0000;
BuildingSurface:Detailed,
    L1_Zone_8_Ceiling_1,
    Ceiling,
    Interior Ceiling,
    L1_Zone_8,
    ,
    Surface,
    L2_Zone_21_Floor_6,
    NoSun,
    NoWind,
    ,
    4,
    -27.8932,
    14.5728,
    6.8500,
    -27.8932,
    4.9728,
    6.8500,
    -9.9944,
    4.9728,
    6.8500,
    -9.9944,
    14.5728,
    6.8500;
BuildingSurface:Detailed,
    L1_Zone_8_Ceiling_2,
    Ceiling,
    Interior Ceiling,
    L1_Zone_8,
    ,
    Surface,
    L2_Zone_21_Floor_7,
    NoSun,
    NoWind,
    ,
    4,
    -27.8932,
    4.9728,
    6.8500,
    -27.8932,
    -5.8263,
    6.8500,
    -4.5873,
    -5.8263,
    6.8500,
    -4.5873,
    4.9728,
    6.8500;
BuildingSurface:Detailed,
    L1_Zone_8_Ceiling_3,
    Ceiling,
    Interior Ceiling,
    L1_Zone_8,
    ,
    Surface,
    L2_Zone_25_Floor_1,
    NoSun,
    NoWind,
    ,
    4,
    -4.4863,
    4.9728,
    6.8500,
    -4.4863,
    -5.8263,
    6.8500,
    2.0058,
    -5.8263,
    6.8500,
    2.0058,
    4.9728,
    6.8500;
BuildingSurface:Detailed,
    L1_Zone_8_Ceiling_4,
    Ceiling,
    Interior Ceiling,
    L1_Zone_8,
    ,
    Surface,
    L2_Zone_28_Floor_1,
    NoSun,
    NoWind,
    ,
    4,
    2.1068,
    4.9728,
    6.8500,
    2.1068,
    -0.8262,
    6.8500,
    7.4058,
    -0.8262,
    6.8500,
    7.4058,
    4.9728,
    6.8500;
BuildingSurface:Detailed,
    L1_Zone_8_Roof_1,
    Roof,
    Interior Ceiling,
    L1_Zone_8,
    ,
    Adiabatic,
    ,
    NoSun,
    NoWind,
    ,
    4,
    -4.5873,
    4.9728,
    6.8500,
    -4.5873,
    -5.8263,
    6.8500,
    -4.4863,
    -5.8263,
    6.8500,
    -4.4863,
    4.9728,
    6.8500;
BuildingSurface:Detailed,
    L1_Zone_8_Roof_2,
    Roof,
    Interior Ceiling,
    L1_Zone_8,
    ,
    Adiabatic,
    ,
    NoSun,
    NoWind,
    ,
    4,
    2.0058,
    4.9728,
    6.8500,
    2.0058,
    -0.8262,
    6.8500,
    2.1068,
    -0.8262,
    6.8500,
    2.1068,
    4.9728,
    6.8500;
BuildingSurface:Detailed,
    L1_Zone_8_Wall_1,
    Wall,
    Exterior Wall,
    L1_Zone_8,
    ,
    Outdoors,
    ,
    SunExposed,
    WindExposed,
    ,
    4,
    -9.9944,
    14.5728,
    6.8500,
    -9.9944,
    14.5728,
    0.0000,
    -27.8932,
    14.5728,
    0.0000,
    -27.8932,
    14.5728,
    6.8500;
BuildingSurface:Detailed,
    L1_Zone_8_Wall_2,
    Wall,
    Interior Wall,
    L1_Zone_8,
    ,
    Adiabatic,
    ,
    NoSun,
    NoWind,
    ,
    4,
    -27.8932,
    8.1738,
    6.8500,
    -27.8932,
    8.1738,
    0.0000,
    -27.8932,
    8.1233,
    0.0000,
    -27.8932,
    8.1233,
    6.8500;
BuildingSurface:Detailed,
    L1_Zone_8_Wall_3,
    Wall,
    Interior Wall,
    L1_Zone_8,
    ,
    Surface,
    L1_Zone_3_Wall_6,
    NoSun,
    NoWind,
    ,
    4,
    -27.8932,
    14.5728,
    6.8500,
    -27.8932,
    14.5728,
    0.0000,
    -27.8932,
    8.1738,
    0.0000,
    -27.8932,
    8.1738,
    6.8500;
BuildingSurface:Detailed,
    L1_Zone_8_Wall_4,
    Wall,
    Interior Wall,
    L1_Zone_8,
    ,
    Adiabatic,
    ,
    NoSun,
    NoWind,
    ,
    4,
    -27.8932,
    3.6737,
    6.8500,
    -27.8932,
    3.6737,
    0.0000,
    -27.8932,
    3.6232,
    0.0000,
    -27.8932,
    3.6232,
    6.8500;
BuildingSurface:Detailed,
    L1_Zone_8_Wall_5,
    Wall,
    Interior Wall,
    L1_Zone_8,
    ,
    Surface,
    L1_Zone_4_Wall_3,
    NoSun,
    NoWind,
    ,
    4,
    -27.8932,
    8.0728,
    6.8500,
    -27.8932,
    8.0728,
    0.0000,
    -27.8932,
    3.6737,
    0.0000,
    -27.8932,
    3.6737,
    6.8500;
BuildingSurface:Detailed,
    L1_Zone_8_Wall_6,
    Wall,
    Interior Wall,
    L1_Zone_8,
    ,
    Adiabatic,
    ,
    NoSun,
    NoWind,
    ,
    4,
    -27.8932,
    8.1233,
    6.8500,
    -27.8932,
    8.1233,
    0.0000,
    -27.8932,
    8.0728,
    0.0000,
    -27.8932,
    8.0728,
    6.8500;
BuildingSurface:Detailed,
    L1_Zone_8_Wall_7,
    Wall,
    Interior Wall,
    L1_Zone_8,
    ,
    Adiabatic,
    ,
    NoSun,
    NoWind,
    ,
    4,
    -27.8932,
    1.6737,
    6.8500,
    -27.8932,
    1.6737,
    0.0000,
    -27.8932,
    1.6232,
    0.0000,
    -27.8932,
    1.6232,
    6.8500;
BuildingSurface:Detailed,
    L1_Zone_8_Wall_8,
    Wall,
    Interior Wall,
    L1_Zone_8,
    ,
    Surface,
    L1_Zone_5_Wall_3,
    NoSun,
    NoWind,
    ,
    4,
    -27.8932,
    3.5727,
    6.8500,
    -27.8932,
    3.5727,
    0.0000,
    -27.8932,
    1.6737,
    0.0000,
    -27.8932,
    1.6737,
    6.8500;
BuildingSurface:Detailed,
    L1_Zone_8_Wall_9,
    Wall,
    Interior Wall,
    L1_Zone_8,
    ,
    Adiabatic,
    ,
    NoSun,
    NoWind,
    ,
    4,
    -27.8932,
    3.6232,
    6.8500,
    -27.8932,
    3.6232,
    0.0000,
    -27.8932,
    3.5727,
    0.0000,
    -27.8932,
    3.5727,
    6.8500;
BuildingSurface:Detailed,
    L1_Zone_8_Wall_10,
    Wall,
    Interior Wall,
    L1_Zone_8,
    ,
    Adiabatic,
    ,
    NoSun,
    NoWind,
    ,
    4,
    -27.8932,
    -1.8263,
    6.8500,
    -27.8932,
    -1.8263,
    0.0000,
    -27.8932,
    -1.8768,
    0.0000,
    -27.8932,
    -1.8768,
    6.8500;
BuildingSurface:Detailed,
    L1_Zone_8_Wall_11,
    Wall,
    Interior Wall,
    L1_Zone_8,
    ,
    Surface,
    L1_Zone_6_Wall_3,
    NoSun,
    NoWind,
    ,
    4,
    -27.8932,
    1.5727,
    6.8500,
    -27.8932,
    1.5727,
    0.0000,
    -27.8932,
    -1.8263,
    0.0000,
    -27.8932,
    -1.8263,
    6.8500;
BuildingSurface:Detailed,
    L1_Zone_8_Wall_12,
    Wall,
    Interior Wall,
    L1_Zone_8,
    ,
    Adiabatic,
    ,
    NoSun,
    NoWind,
    ,
    4,
    -27.8932,
    1.6232,
    6.8500,
    -27.8932,
    1.6232,
    0.0000,
    -27.8932,
    1.5727,
    0.0000,
    -27.8932,
    1.5727,
    6.8500;
BuildingSurface:Detailed,
    L1_Zone_8_Wall_13,
    Wall,
    Interior Wall,
    L1_Zone_8,
    ,
    Surface,
    L1_Zone_7_Wall_2,
    NoSun,
    NoWind,
    ,
    4,
    -27.8932,
    -1.9273,
    6.8500,
    -27.8932,
    -1.9273,
    0.0000,
    -27.8932,
    -5.8263,
    0.0000,
    -27.8932,
    -5.8263,
    6.8500;
BuildingSurface:Detailed,
    L1_Zone_8_Wall_14,
    Wall,
    Interior Wall,
    L1_Zone_8,
    ,
    Adiabatic,
    ,
    NoSun,
    NoWind,
    ,
    4,
    -27.8932,
    -1.8768,
    6.8500,
    -27.8932,
    -1.8768,
    0.0000,
    -27.8932,
    -1.9273,
    0.0000,
    -27.8932,
    -1.9273,
    6.8500;
BuildingSurface:Detailed,
    L1_Zone_8_Wall_15,
    Wall,
    Exterior Wall,
    L1_Zone_8,
    ,
    Outdoors,
    ,
    SunExposed,
    WindExposed,
    ,
    4,
    -27.8932,
    -5.8263,
    6.8500,
    -27.8932,
    -5.8263,
    0.0000,
    2.0058,
    -5.8263,
    0.0000,
    2.0058,
    -5.8263,
    6.8500;
BuildingSurface:Detailed,
    L1_Zone_8_Wall_16,
    Wall,
    Exterior Wall,
    L1_Zone_8,
    ,
    Outdoors,
    ,
    SunExposed,
    WindExposed,
    ,
    4,
    2.0058,
    -5.8263,
    6.8500,
    2.0058,
    -5.8263,
    0.0000,
    2.0058,
    -0.8262,
    0.0000,
    2.0058,
    -0.8262,
    6.8500;
BuildingSurface:Detailed,
    L1_Zone_8_Wall_17,
    Wall,
    Exterior Wall,
    L1_Zone_8,
    ,
    Outdoors,
    ,
    SunExposed,
    WindExposed,
    ,
    4,
    2.0058,
    -0.8262,
    6.8500,
    2.0058,
    -0.8262,
    0.0000,
    7.4058,
    -0.8262,
    0.0000,
    7.4058,
    -0.8262,
    6.8500;
BuildingSurface:Detailed,
    L1_Zone_8_Wall_18,
    Wall,
    Exterior Wall,
    L1_Zone_8,
    ,
    Outdoors,
    ,
    SunExposed,
    WindExposed,
    ,
    4,
    7.4058,
    -0.8262,
    6.8500,
    7.4058,
    -0.8262,
    0.0000,
    7.4058,
    4.9728,
    0.0000,
    7.4058,
    4.9728,
    6.8500;
BuildingSurface:Detailed,
    L1_Zone_8_Wall_19,
    Wall,
    Interior Wall,
    L1_Zone_8,
    ,
    Adiabatic,
    ,
    NoSun,
    NoWind,
    ,
    4,
    2.1068,
    4.9728,
    6.8500,
    2.1068,
    4.9728,
    0.0000,
    2.0563,
    4.9728,
    0.0000,
    2.0563,
    4.9728,
    6.8500;
BuildingSurface:Detailed,
    L1_Zone_8_Wall_20,
    Wall,
    Interior Wall,
    L1_Zone_8,
    ,
    Surface,
    L1_Zone_11_Wall_3,
    NoSun,
    NoWind,
    ,
    4,
    7.4058,
    4.9728,
    6.8500,
    7.4058,
    4.9728,
    0.0000,
    2.1068,
    4.9728,
    0.0000,
    2.1068,
    4.9728,
    6.8500;
BuildingSurface:Detailed,
    L1_Zone_8_Wall_21,
    Wall,
    Interior Wall,
    L1_Zone_8,
    ,
    Adiabatic,
    ,
    NoSun,
    NoWind,
    ,
    4,
    -3.8932,
    4.9728,
    6.8500,
    -3.8932,
    4.9728,
    0.0000,
    -3.9437,
    4.9728,
    0.0000,
    -3.9437,
    4.9728,
    6.8500;
BuildingSurface:Detailed,
    L1_Zone_8_Wall_22,
    Wall,
    Interior Wall,
    L1_Zone_8,
    ,
    Surface,
    L1_Zone_10_Wall_3,
    NoSun,
    NoWind,
    ,
    4,
    2.0058,
    4.9728,
    6.8500,
    2.0058,
    4.9728,
    0.0000,
    -3.8932,
    4.9728,
    0.0000,
    -3.8932,
    4.9728,
    6.8500;
BuildingSurface:Detailed,
    L1_Zone_8_Wall_23,
    Wall,
    Interior Wall,
    L1_Zone_8,
    ,
    Adiabatic,
    ,
    NoSun,
    NoWind,
    ,
    4,
    2.0563,
    4.9728,
    6.8500,
    2.0563,
    4.9728,
    0.0000,
    2.0058,
    4.9728,
    0.0000,
    2.0058,
    4.9728,
    6.8500;
BuildingSurface:Detailed,
    L1_Zone_8_Wall_24,
    Wall,
    Interior Wall,
    L1_Zone_8,
    ,
    Adiabatic,
    ,
    NoSun,
    NoWind,
    ,
    4,
    -9.8934,
    4.9728,
    6.8500,
    -9.8934,
    4.9728,
    0.0000,
    -9.9944,
    4.9728,
    0.0000,
    -9.9944,
    4.9728,
    6.8500;
BuildingSurface:Detailed,
    L1_Zone_8_Wall_25,
    Wall,
    Interior Wall,
    L1_Zone_8,
    ,
    Surface,
    L1_Zone_9_Wall_3,
    NoSun,
    NoWind,
    ,
    4,
    -3.9942,
    4.9728,
    6.8500,
    -3.9942,
    4.9728,
    0.0000,
    -9.8934,
    4.9728,
    0.0000,
    -9.8934,
    4.9728,
    6.8500;
BuildingSurface:Detailed,
    L1_Zone_8_Wall_26,
    Wall,
    Interior Wall,
    L1_Zone_8,
    ,
    Adiabatic,
    ,
    NoSun,
    NoWind,
    ,
    4,
    -3.9437,
    4.9728,
    6.8500,
    -3.9437,
    4.9728,
    0.0000,
    -3.9942,
    4.9728,
    0.0000,
    -3.9942,
    4.9728,
    6.8500;
BuildingSurface:Detailed,
    L1_Zone_8_Wall_27,
    Wall,
    Interior Wall,
    L1_Zone_8,
    ,
    Adiabatic,
    ,
    NoSun,
    NoWind,
    ,
    4,
    -9.9944,
    4.9728,
    6.8500,
    -9.9944,
    4.9728,
    0.0000,
    -9.9944,
    5.0738,
    0.0000,
    -9.9944,
    5.0738,
    6.8500;
BuildingSurface:Detailed,
    L1_Zone_8_Wall_28,
    Wall,
    Interior Wall,
    L1_Zone_8,
    ,
    Surface,
    L1_Zone_9_Wall_2,
    NoSun,
    NoWind,
    ,
    4,
    -9.9944,
    5.0738,
    6.8500,
    -9.9944,
    5.0738,
    0.0000,
    -9.9944,
    14.5728,
    0.0000,
    -9.9944,
    14.5728,
    6.8500;
BuildingSurface:Detailed,
    L1_Zone_9_Floor_1,
    Floor,
    Exterior Floor,
    L1_Zone_9,
    ,
    Ground,
    ,
    NoSun,
    NoWind,
    ,
    4,
    -3.9942,
    14.5728,
    0.0000,
    -3.9942,
    5.0738,
    0.0000,
    -9.8934,
    5.0738,
    0.0000,
    -9.8934,
    14.5728,
    0.0000;
BuildingSurface:Detailed,
    L1_Zone_9_Ceiling_1,
    Ceiling,
    Interior Ceiling,
    L1_Zone_9,
    ,
    Surface,
    L2_Zone_21_Floor_8,
    NoSun,
    NoWind,
    ,
    4,
    -9.8934,
    14.5728,
    6.8500,
    -9.8934,
    5.0738,
    6.8500,
    -4.5873,
    5.0738,
    6.8500,
    -4.5873,
    14.5728,
    6.8500;
BuildingSurface:Detailed,
    L1_Zone_9_Ceiling_2,
    Ceiling,
    Interior Ceiling,
    L1_Zone_9,
    ,
    Surface,
    L2_Zone_27_Floor_1,
    NoSun,
    NoWind,
    ,
    4,
    -4.4863,
    7.3800,
    6.8500,
    -4.4863,
    5.0738,
    6.8500,
    -3.9942,
    5.0738,
    6.8500,
    -3.9942,
    7.3800,
    6.8500;
BuildingSurface:Detailed,
    L1_Zone_9_Ceiling_3,
    Ceiling,
    Interior Ceiling,
    L1_Zone_9,
    ,
    Surface,
    L2_Zone_22_Floor_1,
    NoSun,
    NoWind,
    ,
    4,
    -4.4863,
    14.5728,
    6.8500,
    -4.4863,
    7.4810,
    6.8500,
    -3.9942,
    7.4810,
    6.8500,
    -3.9942,
    14.5728,
    6.8500;
BuildingSurface:Detailed,
    L1_Zone_9_Roof_1,
    Roof,
    Interior Ceiling,
    L1_Zone_9,
    ,
    Adiabatic,
    ,
    NoSun,
    NoWind,
    ,
    4,
    -4.5873,
    7.3800,
    6.8500,
    -4.5873,
    5.0738,
    6.8500,
    -4.4863,
    5.0738,
    6.8500,
    -4.4863,
    7.3800,
    6.8500;
BuildingSurface:Detailed,
    L1_Zone_9_Roof_2,
    Roof,
    Interior Ceiling,
    L1_Zone_9,
    ,
    Adiabatic,
    ,
    NoSun,
    NoWind,
    ,
    4,
    -4.5873,
    14.5728,
    6.8500,
    -4.5873,
    7.4810,
    6.8500,
    -4.4863,
    7.4810,
    6.8500,
    -4.4863,
    14.5728,
    6.8500;
BuildingSurface:Detailed,
    L1_Zone_9_Roof_3,
    Roof,
    Interior Ceiling,
    L1_Zone_9,
    ,
    Adiabatic,
    ,
    NoSun,
    NoWind,
    ,
    4,
    -4.5873,
    7.4810,
    6.8500,
    -4.5873,
    7.3800,
    6.8500,
    -3.9942,
    7.3800,
    6.8500,
    -3.9942,
    7.4810,
    6.8500;
BuildingSurface:Detailed,
    L1_Zone_9_Wall_1,
    Wall,
    Exterior Wall,
    L1_Zone_9,
    ,
    Outdoors,
    ,
    SunExposed,
    WindExposed,
    ,
    4,
    -3.9942,
    14.5728,
    6.8500,
    -3.9942,
    14.5728,
    0.0000,
    -9.8934,
    14.5728,
    0.0000,
    -9.8934,
    14.5728,
    6.8500;
BuildingSurface:Detailed,
    L1_Zone_9_Wall_2,
    Wall,
    Interior Wall,
    L1_Zone_9,
    ,
    Surface,
    L1_Zone_8_Wall_28,
    NoSun,
    NoWind,
    ,
    4,
    -9.8934,
    14.5728,
    6.8500,
    -9.8934,
    14.5728,
    0.0000,
    -9.8934,
    5.0738,
    0.0000,
    -9.8934,
    5.0738,
    6.8500;
BuildingSurface:Detailed,
    L1_Zone_9_Wall_3,
    Wall,
    Interior Wall,
    L1_Zone_9,
    ,
    Surface,
    L1_Zone_8_Wall_25,
    NoSun,
    NoWind,
    ,
    4,
    -9.8934,
    5.0738,
    6.8500,
    -9.8934,
    5.0738,
    0.0000,
    -3.9942,
    5.0738,
    0.0000,
    -3.9942,
    5.0738,
    6.8500;
BuildingSurface:Detailed,
    L1_Zone_9_Wall_4,
    Wall,
    Interior Wall,
    L1_Zone_9,
    ,
    Surface,
    L1_Zone_10_Wall_2,
    NoSun,
    NoWind,
    ,
    4,
    -3.9942,
    5.0738,
    6.8500,
    -3.9942,
    5.0738,
    0.0000,
    -3.9942,
    14.5728,
    0.0000,
    -3.9942,
    14.5728,
    6.8500;
BuildingSurface:Detailed,
    L1_Zone_10_Floor_1,
    Floor,
    Exterior Floor,
    L1_Zone_10,
    ,
    Ground,
    ,
    NoSun,
    NoWind,
    ,
    4,
    2.0058,
    14.5728,
    0.0000,
    2.0058,
    5.0738,
    0.0000,
    -3.8932,
    5.0738,
    0.0000,
    -3.8932,
    14.5728,
    0.0000;
BuildingSurface:Detailed,
    L1_Zone_10_Ceiling_1,
    Ceiling,
    Interior Ceiling,
    L1_Zone_10,
    ,
    Surface,
    L2_Zone_27_Floor_2,
    NoSun,
    NoWind,
    ,
    4,
    -3.8932,
    7.3800,
    6.8500,
    -3.8932,
    5.0738,
    6.8500,
    2.0058,
    5.0738,
    6.8500,
    2.0058,
    7.3800,
    6.8500;
BuildingSurface:Detailed,
    L1_Zone_10_Ceiling_2,
    Ceiling,
    Interior Ceiling,
    L1_Zone_10,
    ,
    Surface,
    L2_Zone_27_Floor_3,
    NoSun,
    NoWind,
    ,
    4,
    1.5136,
    13.0800,
    6.8500,
    1.5136,
    7.3800,
    6.8500,
    2.0058,
    7.3800,
    6.8500,
    2.0058,
    13.0800,
    6.8500;
BuildingSurface:Detailed,
    L1_Zone_10_Ceiling_3,
    Ceiling,
    Interior Ceiling,
    L1_Zone_10,
    ,
    Surface,
    L2_Zone_22_Floor_2,
    NoSun,
    NoWind,
    ,
    4,
    -3.8932,
    14.5728,
    6.8500,
    -3.8932,
    7.4810,
    6.8500,
    -1.0873,
    7.4810,
    6.8500,
    -1.0873,
    14.5728,
    6.8500;
BuildingSurface:Detailed,
    L1_Zone_10_Ceiling_4,
    Ceiling,
    Interior Ceiling,
    L1_Zone_10,
    ,
    Surface,
    L2_Zone_24_Floor_1,
    NoSun,
    NoWind,
    ,
    4,
    -0.9863,
    10.5800,
    6.8500,
    -0.9863,
    7.4810,
    6.8500,
    1.4126,
    7.4810,
    6.8500,
    1.4126,
    10.5800,
    6.8500;
BuildingSurface:Detailed,
    L1_Zone_10_Ceiling_5,
    Ceiling,
    Interior Ceiling,
    L1_Zone_10,
    ,
    Surface,
    L2_Zone_23_Floor_1,
    NoSun,
    NoWind,
    ,
    4,
    -0.9863,
    14.5728,
    6.8500,
    -0.9863,
    10.6810,
    6.8500,
    1.4126,
    10.6810,
    6.8500,
    1.4126,
    14.5728,
    6.8500;
BuildingSurface:Detailed,
    L1_Zone_10_Roof_1,
    Roof,
    Interior Ceiling,
    L1_Zone_10,
    ,
    Adiabatic,
    ,
    NoSun,
    NoWind,
    ,
    4,
    -3.8932,
    7.4810,
    6.8500,
    -3.8932,
    7.3800,
    6.8500,
    1.5136,
    7.3800,
    6.8500,
    1.5136,
    7.4810,
    6.8500;
BuildingSurface:Detailed,
    L1_Zone_10_Roof_2,
    Roof,
    Interior Ceiling,
    L1_Zone_10,
    ,
    Adiabatic,
    ,
    NoSun,
    NoWind,
    ,
    4,
    -1.0873,
    10.5800,
    6.8500,
    -1.0873,
    7.4810,
    6.8500,
    -0.9863,
    7.4810,
    6.8500,
    -0.9863,
    10.5800,
    6.8500;
BuildingSurface:Detailed,
    L1_Zone_10_Roof_3,
    Roof,
    Interior Ceiling,
    L1_Zone_10,
    ,
    Adiabatic,
    ,
    NoSun,
    NoWind,
    ,
    4,
    -1.0873,
    14.5728,
    6.8500,
    -1.0873,
    10.6810,
    6.8500,
    -0.9863,
    10.6810,
    6.8500,
    -0.9863,
    14.5728,
    6.8500;
BuildingSurface:Detailed,
    L1_Zone_10_Roof_4,
    Roof,
    Interior Ceiling,
    L1_Zone_10,
    ,
    Adiabatic,
    ,
    NoSun,
    NoWind,
    ,
    4,
    -1.0873,
    10.6810,
    6.8500,
    -1.0873,
    10.5800,
    6.8500,
    1.5136,
    10.5800,
    6.8500,
    1.5136,
    10.6810,
    6.8500;
BuildingSurface:Detailed,
    L1_Zone_10_Roof_5,
    Roof,
    Interior Ceiling,
    L1_Zone_10,
    ,
    Adiabatic,
    ,
    NoSun,
    NoWind,
    ,
    4,
    1.4126,
    10.5800,
    6.8500,
    1.4126,
    7.4810,
    6.8500,
    1.5136,
    7.4810,
    6.8500,
    1.5136,
    10.5800,
    6.8500;
BuildingSurface:Detailed,
    L1_Zone_10_Roof_6,
    Roof,
    Interior Ceiling,
    L1_Zone_10,
    ,
    Adiabatic,
    ,
    NoSun,
    NoWind,
    ,
    4,
    1.4126,
    13.0800,
    6.8500,
    1.4126,
    10.6810,
    6.8500,
    1.5136,
    10.6810,
    6.8500,
    1.5136,
    13.0800,
    6.8500;
BuildingSurface:Detailed,
    L1_Zone_10_Roof_7,
    Roof,
    Exterior Roof,
    L1_Zone_10,
    ,
    Outdoors,
    ,
    SunExposed,
    WindExposed,
    ,
    4,
    1.4126,
    14.5728,
    6.8500,
    1.4126,
    13.0800,
    6.8500,
    2.0058,
    13.0800,
    6.8500,
    2.0058,
    14.5728,
    6.8500;
BuildingSurface:Detailed,
    L1_Zone_10_Wall_1,
    Wall,
    Exterior Wall,
    L1_Zone_10,
    ,
    Outdoors,
    ,
    SunExposed,
    WindExposed,
    ,
    4,
    2.0058,
    14.5728,
    6.8500,
    2.0058,
    14.5728,
    0.0000,
    -3.8932,
    14.5728,
    0.0000,
    -3.8932,
    14.5728,
    6.8500;
BuildingSurface:Detailed,
    L1_Zone_10_Wall_2,
    Wall,
    Interior Wall,
    L1_Zone_10,
    ,
    Surface,
    L1_Zone_9_Wall_4,
    NoSun,
    NoWind,
    ,
    4,
    -3.8932,
    14.5728,
    6.8500,
    -3.8932,
    14.5728,
    0.0000,
    -3.8932,
    5.0738,
    0.0000,
    -3.8932,
    5.0738,
    6.8500;
BuildingSurface:Detailed,
    L1_Zone_10_Wall_3,
    Wall,
    Interior Wall,
    L1_Zone_10,
    ,
    Surface,
    L1_Zone_8_Wall_22,
    NoSun,
    NoWind,
    ,
    4,
    -3.8932,
    5.0738,
    6.8500,
    -3.8932,
    5.0738,
    0.0000,
    2.0058,
    5.0738,
    0.0000,
    2.0058,
    5.0738,
    6.8500;
BuildingSurface:Detailed,
    L1_Zone_10_Wall_4,
    Wall,
    Interior Wall,
    L1_Zone_10,
    ,
    Surface,
    L1_Zone_11_Wall_2,
    NoSun,
    NoWind,
    ,
    4,
    2.0058,
    5.0738,
    6.8500,
    2.0058,
    5.0738,
    0.0000,
    2.0058,
    14.5728,
    0.0000,
    2.0058,
    14.5728,
    6.8500;
BuildingSurface:Detailed,
    L1_Zone_11_Floor_1,
    Floor,
    Exterior Floor,
    L1_Zone_11,
    ,
    Ground,
    ,
    NoSun,
    NoWind,
    ,
    4,
    7.4058,
    14.5728,
    0.0000,
    7.4058,
    5.0738,
    0.0000,
    2.1068,
    5.0738,
    0.0000,
    2.1068,
    14.5728,
    0.0000;
BuildingSurface:Detailed,
    L1_Zone_11_Ceiling_1,
    Ceiling,
    Interior Ceiling,
    L1_Zone_11,
    ,
    Surface,
    L2_Zone_27_Floor_4,
    NoSun,
    NoWind,
    ,
    4,
    2.1068,
    13.0800,
    6.8500,
    2.1068,
    5.0738,
    6.8500,
    7.4058,
    5.0738,
    6.8500,
    7.4058,
    13.0800,
    6.8500;
BuildingSurface:Detailed,
    L1_Zone_11_Roof_1,
    Roof,
    Exterior Roof,
    L1_Zone_11,
    ,
    Outdoors,
    ,
    SunExposed,
    WindExposed,
    ,
    4,
    2.1068,
    14.5728,
    6.8500,
    2.1068,
    13.0800,
    6.8500,
    7.4058,
    13.0800,
    6.8500,
    7.4058,
    14.5728,
    6.8500;
BuildingSurface:Detailed,
    L1_Zone_11_Wall_1,
    Wall,
    Exterior Wall,
    L1_Zone_11,
    ,
    Outdoors,
    ,
    SunExposed,
    WindExposed,
    ,
    4,
    7.4058,
    14.5728,
    6.8500,
    7.4058,
    14.5728,
    0.0000,
    2.1068,
    14.5728,
    0.0000,
    2.1068,
    14.5728,
    6.8500;
BuildingSurface:Detailed,
    L1_Zone_11_Wall_2,
    Wall,
    Interior Wall,
    L1_Zone_11,
    ,
    Surface,
    L1_Zone_10_Wall_4,
    NoSun,
    NoWind,
    ,
    4,
    2.1068,
    14.5728,
    6.8500,
    2.1068,
    14.5728,
    0.0000,
    2.1068,
    5.0738,
    0.0000,
    2.1068,
    5.0738,
    6.8500;
BuildingSurface:Detailed,
    L1_Zone_11_Wall_3,
    Wall,
    Interior Wall,
    L1_Zone_11,
    ,
    Surface,
    L1_Zone_8_Wall_20,
    NoSun,
    NoWind,
    ,
    4,
    2.1068,
    5.0738,
    6.8500,
    2.1068,
    5.0738,
    0.0000,
    7.4058,
    5.0738,
    0.0000,
    7.4058,
    5.0738,
    6.8500;
BuildingSurface:Detailed,
    L1_Zone_11_Wall_4,
    Wall,
    Interior Wall,
    L1_Zone_11,
    ,
    Surface,
    L1_Zone_12_Wall_18,
    NoSun,
    NoWind,
    ,
    4,
    7.4058,
    5.0738,
    6.8500,
    7.4058,
    5.0738,
    0.0000,
    7.4058,
    10.5728,
    0.0000,
    7.4058,
    10.5728,
    6.8500;
BuildingSurface:Detailed,
    L1_Zone_11_Wall_5,
    Wall,
    Interior Wall,
    L1_Zone_11,
    ,
    Adiabatic,
    ,
    NoSun,
    NoWind,
    ,
    4,
    7.4058,
    10.5728,
    6.8500,
    7.4058,
    10.5728,
    0.0000,
    7.4058,
    10.6738,
    0.0000,
    7.4058,
    10.6738,
    6.8500;
BuildingSurface:Detailed,
    L1_Zone_11_Wall_6,
    Wall,
    Interior Wall,
    L1_Zone_11,
    ,
    Surface,
    L1_Zone_13_Wall_2,
    NoSun,
    NoWind,
    ,
    4,
    7.4058,
    10.6738,
    6.8500,
    7.4058,
    10.6738,
    0.0000,
    7.4058,
    14.5728,
    0.0000,
    7.4058,
    14.5728,
    6.8500;
BuildingSurface:Detailed,
    L1_Zone_19_Floor_1,
    Floor,
    Exterior Floor,
    L1_Zone_19,
    ,
    Ground,
    ,
    NoSun,
    NoWind,
    ,
    4,
    20.9808,
    8.5710,
    0.0000,
    20.9808,
    5.0738,
    0.0000,
    14.0044,
    5.0738,
    0.0000,
    14.0044,
    8.5710,
    0.0000;
BuildingSurface:Detailed,
    L1_Zone_19_Ceiling_1,
    Ceiling,
    Interior Ceiling,
    L1_Zone_19,
    ,
    Surface,
    L2_Zone_42_Floor_1,
    NoSun,
    NoWind,
    ,
    4,
    14.0044,
    8.5710,
    6.8500,
    14.0044,
    5.0738,
    6.8500,
    20.9808,
    5.0738,
    6.8500,
    20.9808,
    8.5710,
    6.8500;
BuildingSurface:Detailed,
    L1_Zone_19_Wall_1,
    Wall,
    Exterior Wall,
    L1_Zone_19,
    ,
    Outdoors,
    ,
    SunExposed,
    WindExposed,
    ,
    4,
    14.0044,
    5.0738,
    6.8500,
    14.0044,
    5.0738,
    0.0000,
    20.9808,
    5.0738,
    0.0000,
    20.9808,
    5.0738,
    6.8500;
BuildingSurface:Detailed,
    L1_Zone_19_Wall_2,
    Wall,
    Interior Wall,
    L1_Zone_19,
    ,
    Surface,
    L1_Zone_17_Wall_2,
    NoSun,
    NoWind,
    ,
    4,
    20.9808,
    5.0738,
    6.8500,
    20.9808,
    5.0738,
    0.0000,
    20.9808,
    8.5710,
    0.0000,
    20.9808,
    8.5710,
    6.8500;
BuildingSurface:Detailed,
    L1_Zone_19_Wall_3,
    Wall,
    Interior Wall,
    L1_Zone_19,
    ,
    Surface,
    L1_Zone_12_Wall_5,
    NoSun,
    NoWind,
    ,
    4,
    20.9808,
    8.5710,
    6.8500,
    20.9808,
    8.5710,
    0.0000,
    14.0044,
    8.5710,
    0.0000,
    14.0044,
    8.5710,
    6.8500;
BuildingSurface:Detailed,
    L1_Zone_19_Wall_4,
    Wall,
    Interior Wall,
    L1_Zone_19,
    ,
    Surface,
    L1_Zone_12_Wall_2,
    NoSun,
    NoWind,
    ,
    4,
    14.0044,
    8.5710,
    6.8500,
    14.0044,
    8.5710,
    0.0000,
    14.0044,
    5.0738,
    0.0000,
    14.0044,
    5.0738,
    6.8500;
BuildingSurface:Detailed,
    L1_Zone_13_Floor_1,
    Floor,
    Exterior Floor,
    L1_Zone_13,
    ,
    Ground,
    ,
    NoSun,
    NoWind,
    ,
    4,
    11.4058,
    14.5728,
    0.0000,
    11.4058,
    10.6738,
    0.0000,
    7.5068,
    10.6738,
    0.0000,
    7.5068,
    14.5728,
    0.0000;
BuildingSurface:Detailed,
    L1_Zone_13_Ceiling_1,
    Ceiling,
    Interior Ceiling,
    L1_Zone_13,
    ,
    Surface,
    L2_Zone_31_Floor_1,
    NoSun,
    NoWind,
    ,
    4,
    7.5068,
    14.5728,
    6.8500,
    7.5068,
    10.6810,
    6.8500,
    11.4058,
    10.6810,
    6.8500,
    11.4058,
    14.5728,
    6.8500;
BuildingSurface:Detailed,
    L1_Zone_13_Roof_1,
    Roof,
    Interior Ceiling,
    L1_Zone_13,
    ,
    Adiabatic,
    ,
    NoSun,
    NoWind,
    ,
    4,
    7.5068,
    10.6810,
    6.8500,
    7.5068,
    10.6738,
    6.8500,
    11.4058,
    10.6738,
    6.8500,
    11.4058,
    10.6810,
    6.8500;
BuildingSurface:Detailed,
    L1_Zone_13_Wall_1,
    Wall,
    Exterior Wall,
    L1_Zone_13,
    ,
    Outdoors,
    ,
    SunExposed,
    WindExposed,
    ,
    4,
    11.4058,
    14.5728,
    6.8500,
    11.4058,
    14.5728,
    0.0000,
    7.5068,
    14.5728,
    0.0000,
    7.5068,
    14.5728,
    6.8500;
BuildingSurface:Detailed,
    L1_Zone_13_Wall_2,
    Wall,
    Interior Wall,
    L1_Zone_13,
    ,
    Surface,
    L1_Zone_11_Wall_6,
    NoSun,
    NoWind,
    ,
    4,
    7.5068,
    14.5728,
    6.8500,
    7.5068,
    14.5728,
    0.0000,
    7.5068,
    10.6738,
    0.0000,
    7.5068,
    10.6738,
    6.8500;
BuildingSurface:Detailed,
    L1_Zone_13_Wall_3,
    Wall,
    Interior Wall,
    L1_Zone_13,
    ,
    Surface,
    L1_Zone_12_Wall_16,
    NoSun,
    NoWind,
    ,
    4,
    7.5068,
    10.6738,
    6.8500,
    7.5068,
    10.6738,
    0.0000,
    11.4058,
    10.6738,
    0.0000,
    11.4058,
    10.6738,
    6.8500;
BuildingSurface:Detailed,
    L1_Zone_13_Wall_4,
    Wall,
    Interior Wall,
    L1_Zone_13,
    ,
    Surface,
    L1_Zone_12_Wall_15,
    NoSun,
    NoWind,
    ,
    4,
    11.4058,
    10.6738,
    6.8500,
    11.4058,
    10.6738,
    0.0000,
    11.4058,
    10.9728,
    0.0000,
    11.4058,
    10.9728,
    6.8500;
BuildingSurface:Detailed,
    L1_Zone_13_Wall_5,
    Wall,
    Interior Wall,
    L1_Zone_13,
    ,
    Adiabatic,
    ,
    NoSun,
    NoWind,
    ,
    4,
    11.4058,
    10.9728,
    6.8500,
    11.4058,
    10.9728,
    0.0000,
    11.4058,
    11.0738,
    0.0000,
    11.4058,
    11.0738,
    6.8500;
BuildingSurface:Detailed,
    L1_Zone_13_Wall_6,
    Wall,
    Interior Wall,
    L1_Zone_13,
    ,
    Surface,
    L1_Zone_14_Wall_2,
    NoSun,
    NoWind,
    ,
    4,
    11.4058,
    11.0738,
    6.8500,
    11.4058,
    11.0738,
    0.0000,
    11.4058,
    14.5728,
    0.0000,
    11.4058,
    14.5728,
    6.8500;
BuildingSurface:Detailed,
    L1_Zone_14_Floor_1,
    Floor,
    Exterior Floor,
    L1_Zone_14,
    ,
    Ground,
    ,
    NoSun,
    NoWind,
    ,
    4,
    14.4808,
    14.5728,
    0.0000,
    14.4808,
    11.0738,
    0.0000,
    11.5068,
    11.0738,
    0.0000,
    11.5068,
    14.5728,
    0.0000;
BuildingSurface:Detailed,
    L1_Zone_14_Ceiling_1,
    Ceiling,
    Interior Ceiling,
    L1_Zone_14,
    ,
    Surface,
    L2_Zone_32_Floor_1,
    NoSun,
    NoWind,
    ,
    4,
    11.5137,
    14.5728,
    6.8500,
    11.5137,
    11.0810,
    6.8500,
    14.4808,
    11.0810,
    6.8500,
    14.4808,
    14.5728,
    6.8500;
BuildingSurface:Detailed,
    L1_Zone_14_Roof_1,
    Roof,
    Interior Ceiling,
    L1_Zone_14,
    ,
    Adiabatic,
    ,
    NoSun,
    NoWind,
    ,
    4,
    11.5068,
    14.5728,
    6.8500,
    11.5068,
    11.0810,
    6.8500,
    11.5137,
    11.0810,
    6.8500,
    11.5137,
    14.5728,
    6.8500;
BuildingSurface:Detailed,
    L1_Zone_14_Roof_2,
    Roof,
    Interior Ceiling,
    L1_Zone_14,
    ,
    Adiabatic,
    ,
    NoSun,
    NoWind,
    ,
    4,
    11.5068,
    11.0810,
    6.8500,
    11.5068,
    11.0738,
    6.8500,
    14.4808,
    11.0738,
    6.8500,
    14.4808,
    11.0810,
    6.8500;
BuildingSurface:Detailed,
    L1_Zone_14_Wall_1,
    Wall,
    Exterior Wall,
    L1_Zone_14,
    ,
    Outdoors,
    ,
    SunExposed,
    WindExposed,
    ,
    4,
    14.4808,
    14.5728,
    6.8500,
    14.4808,
    14.5728,
    0.0000,
    11.5068,
    14.5728,
    0.0000,
    11.5068,
    14.5728,
    6.8500;
BuildingSurface:Detailed,
    L1_Zone_14_Wall_2,
    Wall,
    Interior Wall,
    L1_Zone_14,
    ,
    Surface,
    L1_Zone_13_Wall_6,
    NoSun,
    NoWind,
    ,
    4,
    11.5068,
    14.5728,
    6.8500,
    11.5068,
    14.5728,
    0.0000,
    11.5068,
    11.0738,
    0.0000,
    11.5068,
    11.0738,
    6.8500;
BuildingSurface:Detailed,
    L1_Zone_14_Wall_3,
    Wall,
    Interior Wall,
    L1_Zone_14,
    ,
    Surface,
    L1_Zone_12_Wall_12,
    NoSun,
    NoWind,
    ,
    4,
    11.5068,
    11.0738,
    6.8500,
    11.5068,
    11.0738,
    0.0000,
    14.4808,
    11.0738,
    0.0000,
    14.4808,
    11.0738,
    6.8500;
BuildingSurface:Detailed,
    L1_Zone_14_Wall_4,
    Wall,
    Interior Wall,
    L1_Zone_14,
    ,
    Surface,
    L1_Zone_15_Wall_2,
    NoSun,
    NoWind,
    ,
    4,
    14.4808,
    11.0738,
    6.8500,
    14.4808,
    11.0738,
    0.0000,
    14.4808,
    14.5728,
    0.0000,
    14.4808,
    14.5728,
    6.8500;
BuildingSurface:Detailed,
    L1_Zone_15_Floor_1,
    Floor,
    Exterior Floor,
    L1_Zone_15,
    ,
    Ground,
    ,
    NoSun,
    NoWind,
    ,
    4,
    17.7308,
    14.5728,
    0.0000,
    17.7308,
    11.0738,
    0.0000,
    14.5818,
    11.0738,
    0.0000,
    14.5818,
    14.5728,
    0.0000;
BuildingSurface:Detailed,
    L1_Zone_15_Ceiling_1,
    Ceiling,
    Interior Ceiling,
    L1_Zone_15,
    ,
    Surface,
    L2_Zone_34_Floor_1,
    NoSun,
    NoWind,
    ,
    4,
    14.6137,
    14.5728,
    6.8500,
    14.6137,
    11.0810,
    6.8500,
    17.7308,
    11.0810,
    6.8500,
    17.7308,
    14.5728,
    6.8500;
BuildingSurface:Detailed,
    L1_Zone_15_Roof_1,
    Roof,
    Interior Ceiling,
    L1_Zone_15,
    ,
    Adiabatic,
    ,
    NoSun,
    NoWind,
    ,
    4,
    14.5818,
    14.5728,
    6.8500,
    14.5818,
    11.0810,
    6.8500,
    14.6137,
    11.0810,
    6.8500,
    14.6137,
    14.5728,
    6.8500;
BuildingSurface:Detailed,
    L1_Zone_15_Roof_2,
    Roof,
    Interior Ceiling,
    L1_Zone_15,
    ,
    Adiabatic,
    ,
    NoSun,
    NoWind,
    ,
    4,
    14.5818,
    11.0810,
    6.8500,
    14.5818,
    11.0738,
    6.8500,
    17.7308,
    11.0738,
    6.8500,
    17.7308,
    11.0810,
    6.8500;
BuildingSurface:Detailed,
    L1_Zone_15_Wall_1,
    Wall,
    Exterior Wall,
    L1_Zone_15,
    ,
    Outdoors,
    ,
    SunExposed,
    WindExposed,
    ,
    4,
    17.7308,
    14.5728,
    6.8500,
    17.7308,
    14.5728,
    0.0000,
    14.5818,
    14.5728,
    0.0000,
    14.5818,
    14.5728,
    6.8500;
BuildingSurface:Detailed,
    L1_Zone_15_Wall_2,
    Wall,
    Interior Wall,
    L1_Zone_15,
    ,
    Surface,
    L1_Zone_14_Wall_4,
    NoSun,
    NoWind,
    ,
    4,
    14.5818,
    14.5728,
    6.8500,
    14.5818,
    14.5728,
    0.0000,
    14.5818,
    11.0738,
    0.0000,
    14.5818,
    11.0738,
    6.8500;
BuildingSurface:Detailed,
    L1_Zone_15_Wall_3,
    Wall,
    Interior Wall,
    L1_Zone_15,
    ,
    Surface,
    L1_Zone_12_Wall_10,
    NoSun,
    NoWind,
    ,
    4,
    14.5818,
    11.0738,
    6.8500,
    14.5818,
    11.0738,
    0.0000,
    17.7308,
    11.0738,
    0.0000,
    17.7308,
    11.0738,
    6.8500;
BuildingSurface:Detailed,
    L1_Zone_15_Wall_4,
    Wall,
    Interior Wall,
    L1_Zone_15,
    ,
    Surface,
    L1_Zone_16_Wall_2,
    NoSun,
    NoWind,
    ,
    4,
    17.7308,
    11.0738,
    6.8500,
    17.7308,
    11.0738,
    0.0000,
    17.7308,
    14.5728,
    0.0000,
    17.7308,
    14.5728,
    6.8500;
BuildingSurface:Detailed,
    L1_Zone_16_Floor_1,
    Floor,
    Exterior Floor,
    L1_Zone_16,
    ,
    Ground,
    ,
    NoSun,
    NoWind,
    ,
    4,
    20.9808,
    14.5728,
    0.0000,
    20.9808,
    11.0738,
    0.0000,
    17.8318,
    11.0738,
    0.0000,
    17.8318,
    14.5728,
    0.0000;
BuildingSurface:Detailed,
    L1_Zone_16_Ceiling_1,
    Ceiling,
    Interior Ceiling,
    L1_Zone_16,
    ,
    Surface,
    L2_Zone_35_Floor_1,
    NoSun,
    NoWind,
    ,
    4,
    17.8637,
    14.5728,
    6.8500,
    17.8637,
    11.0810,
    6.8500,
    20.9808,
    11.0810,
    6.8500,
    20.9808,
    14.5728,
    6.8500;
BuildingSurface:Detailed,
    L1_Zone_16_Roof_1,
    Roof,
    Interior Ceiling,
    L1_Zone_16,
    ,
    Adiabatic,
    ,
    NoSun,
    NoWind,
    ,
    4,
    17.8318,
    14.5728,
    6.8500,
    17.8318,
    11.0810,
    6.8500,
    17.8637,
    11.0810,
    6.8500,
    17.8637,
    14.5728,
    6.8500;
BuildingSurface:Detailed,
    L1_Zone_16_Roof_2,
    Roof,
    Interior Ceiling,
    L1_Zone_16,
    ,
    Adiabatic,
    ,
    NoSun,
    NoWind,
    ,
    4,
    17.8318,
    11.0810,
    6.8500,
    17.8318,
    11.0738,
    6.8500,
    20.9808,
    11.0738,
    6.8500,
    20.9808,
    11.0810,
    6.8500;
BuildingSurface:Detailed,
    L1_Zone_16_Wall_1,
    Wall,
    Exterior Wall,
    L1_Zone_16,
    ,
    Outdoors,
    ,
    SunExposed,
    WindExposed,
    ,
    4,
    20.9808,
    14.5728,
    6.8500,
    20.9808,
    14.5728,
    0.0000,
    17.8318,
    14.5728,
    0.0000,
    17.8318,
    14.5728,
    6.8500;
BuildingSurface:Detailed,
    L1_Zone_16_Wall_2,
    Wall,
    Interior Wall,
    L1_Zone_16,
    ,
    Surface,
    L1_Zone_15_Wall_4,
    NoSun,
    NoWind,
    ,
    4,
    17.8318,
    14.5728,
    6.8500,
    17.8318,
    14.5728,
    0.0000,
    17.8318,
    11.0738,
    0.0000,
    17.8318,
    11.0738,
    6.8500;
BuildingSurface:Detailed,
    L1_Zone_16_Wall_3,
    Wall,
    Interior Wall,
    L1_Zone_16,
    ,
    Surface,
    L1_Zone_12_Wall_8,
    NoSun,
    NoWind,
    ,
    4,
    17.8318,
    11.0738,
    6.8500,
    17.8318,
    11.0738,
    0.0000,
    20.9808,
    11.0738,
    0.0000,
    20.9808,
    11.0738,
    6.8500;
BuildingSurface:Detailed,
    L1_Zone_16_Wall_4,
    Wall,
    Interior Wall,
    L1_Zone_16,
    ,
    Surface,
    L1_Zone_17_Wall_6,
    NoSun,
    NoWind,
    ,
    4,
    20.9808,
    11.0738,
    6.8500,
    20.9808,
    11.0738,
    0.0000,
    20.9808,
    14.5728,
    0.0000,
    20.9808,
    14.5728,
    6.8500;
BuildingSurface:Detailed,
    L1_Zone_17_Floor_1,
    Floor,
    Exterior Floor,
    L1_Zone_17,
    ,
    Ground,
    ,
    NoSun,
    NoWind,
    ,
    4,
    27.9808,
    14.5728,
    0.0000,
    27.9808,
    5.0738,
    0.0000,
    21.0818,
    5.0738,
    0.0000,
    21.0818,
    14.5728,
    0.0000;
BuildingSurface:Detailed,
    L1_Zone_17_Ceiling_1,
    Ceiling,
    Interior Ceiling,
    L1_Zone_17,
    ,
    Surface,
    L2_Zone_30_Floor_5,
    NoSun,
    NoWind,
    ,
    4,
    21.0818,
    10.9800,
    6.8500,
    21.0818,
    8.6720,
    6.8500,
    27.9808,
    8.6720,
    6.8500,
    27.9808,
    10.9800,
    6.8500;
BuildingSurface:Detailed,
    L1_Zone_17_Ceiling_2,
    Ceiling,
    Interior Ceiling,
    L1_Zone_17,
    ,
    Surface,
    L2_Zone_26_Floor_1,
    NoSun,
    NoWind,
    ,
    4,
    21.1068,
    8.5710,
    6.8500,
    21.1068,
    5.0738,
    6.8500,
    27.9808,
    5.0738,
    6.8500,
    27.9808,
    8.5710,
    6.8500;
BuildingSurface:Detailed,
    L1_Zone_17_Ceiling_3,
    Ceiling,
    Interior Ceiling,
    L1_Zone_17,
    ,
    Surface,
    L2_Zone_36_Floor_1,
    NoSun,
    NoWind,
    ,
    4,
    21.1142,
    14.5728,
    6.8500,
    21.1142,
    11.0810,
    6.8500,
    27.9808,
    11.0810,
    6.8500,
    27.9808,
    14.5728,
    6.8500;
BuildingSurface:Detailed,
    L1_Zone_17_Roof_1,
    Roof,
    Interior Ceiling,
    L1_Zone_17,
    ,
    Adiabatic,
    ,
    NoSun,
    NoWind,
    ,
    4,
    21.0818,
    8.5710,
    6.8500,
    21.0818,
    5.0738,
    6.8500,
    21.1068,
    5.0738,
    6.8500,
    21.1068,
    8.5710,
    6.8500;
BuildingSurface:Detailed,
    L1_Zone_17_Roof_2,
    Roof,
    Interior Ceiling,
    L1_Zone_17,
    ,
    Adiabatic,
    ,
    NoSun,
    NoWind,
    ,
    4,
    21.0818,
    14.5728,
    6.8500,
    21.0818,
    11.0810,
    6.8500,
    21.1142,
    11.0810,
    6.8500,
    21.1142,
    14.5728,
    6.8500;
BuildingSurface:Detailed,
    L1_Zone_17_Roof_3,
    Roof,
    Interior Ceiling,
    L1_Zone_17,
    ,
    Adiabatic,
    ,
    NoSun,
    NoWind,
    ,
    4,
    21.0818,
    8.6720,
    6.8500,
    21.0818,
    8.5710,
    6.8500,
    27.9808,
    8.5710,
    6.8500,
    27.9808,
    8.6720,
    6.8500;
BuildingSurface:Detailed,
    L1_Zone_17_Roof_4,
    Roof,
    Interior Ceiling,
    L1_Zone_17,
    ,
    Adiabatic,
    ,
    NoSun,
    NoWind,
    ,
    4,
    21.0818,
    11.0810,
    6.8500,
    21.0818,
    10.9800,
    6.8500,
    27.9808,
    10.9800,
    6.8500,
    27.9808,
    11.0810,
    6.8500;
BuildingSurface:Detailed,
    L1_Zone_17_Wall_1,
    Wall,
    Exterior Wall,
    L1_Zone_17,
    ,
    Outdoors,
    ,
    SunExposed,
    WindExposed,
    ,
    4,
    27.9808,
    14.5728,
    6.8500,
    27.9808,
    14.5728,
    0.0000,
    21.0818,
    14.5728,
    0.0000,
    21.0818,
    14.5728,
    6.8500;
BuildingSurface:Detailed,
    L1_Zone_17_Wall_2,
    Wall,
    Interior Wall,
    L1_Zone_17,
    ,
    Surface,
    L1_Zone_19_Wall_2,
    NoSun,
    NoWind,
    ,
    4,
    21.0818,
    8.5710,
    6.8500,
    21.0818,
    8.5710,
    0.0000,
    21.0818,
    5.0738,
    0.0000,
    21.0818,
    5.0738,
    6.8500;
BuildingSurface:Detailed,
    L1_Zone_17_Wall_3,
    Wall,
    Interior Wall,
    L1_Zone_17,
    ,
    Adiabatic,
    ,
    NoSun,
    NoWind,
    ,
    4,
    21.0818,
    8.6720,
    6.8500,
    21.0818,
    8.6720,
    0.0000,
    21.0818,
    8.5710,
    0.0000,
    21.0818,
    8.5710,
    6.8500;
BuildingSurface:Detailed,
    L1_Zone_17_Wall_4,
    Wall,
    Interior Wall,
    L1_Zone_17,
    ,
    Surface,
    L1_Zone_12_Wall_6,
    NoSun,
    NoWind,
    ,
    4,
    21.0818,
    10.9728,
    6.8500,
    21.0818,
    10.9728,
    0.0000,
    21.0818,
    8.6720,
    0.0000,
    21.0818,
    8.6720,
    6.8500;
BuildingSurface:Detailed,
    L1_Zone_17_Wall_5,
    Wall,
    Interior Wall,
    L1_Zone_17,
    ,
    Adiabatic,
    ,
    NoSun,
    NoWind,
    ,
    4,
    21.0818,
    11.0738,
    6.8500,
    21.0818,
    11.0738,
    0.0000,
    21.0818,
    10.9728,
    0.0000,
    21.0818,
    10.9728,
    6.8500;
BuildingSurface:Detailed,
    L1_Zone_17_Wall_6,
    Wall,
    Interior Wall,
    L1_Zone_17,
    ,
    Surface,
    L1_Zone_16_Wall_4,
    NoSun,
    NoWind,
    ,
    4,
    21.0818,
    14.5728,
    6.8500,
    21.0818,
    14.5728,
    0.0000,
    21.0818,
    11.0738,
    0.0000,
    21.0818,
    11.0738,
    6.8500;
BuildingSurface:Detailed,
    L1_Zone_17_Wall_7,
    Wall,
    Exterior Wall,
    L1_Zone_17,
    ,
    Outdoors,
    ,
    SunExposed,
    WindExposed,
    ,
    4,
    21.0818,
    5.0738,
    6.8500,
    21.0818,
    5.0738,
    0.0000,
    27.9808,
    5.0738,
    0.0000,
    27.9808,
    5.0738,
    6.8500;
BuildingSurface:Detailed,
    L1_Zone_17_Wall_8,
    Wall,
    Interior Wall,
    L1_Zone_17,
    ,
    Surface,
    L1_Zone_18_Wall_2,
    NoSun,
    NoWind,
    ,
    4,
    27.9808,
    5.0738,
    6.8500,
    27.9808,
    5.0738,
    0.0000,
    27.9808,
    14.5728,
    0.0000,
    27.9808,
    14.5728,
    6.8500;
BuildingSurface:Detailed,
    L1_Zone_18_Floor_1,
    Floor,
    Exterior Floor,
    L1_Zone_18,
    ,
    Ground,
    ,
    NoSun,
    NoWind,
    ,
    4,
    34.5058,
    14.5728,
    0.0000,
    34.5058,
    5.0738,
    0.0000,
    28.0818,
    5.0738,
    0.0000,
    28.0818,
    14.5728,
    0.0000;
BuildingSurface:Detailed,
    L1_Zone_18_Ceiling_1,
    Ceiling,
    Interior Ceiling,
    L1_Zone_18,
    ,
    Surface,
    L2_Zone_40_Floor_1,
    NoSun,
    NoWind,
    ,
    4,
    28.0995,
    12.4649,
    6.8500,
    28.0995,
    5.0738,
    6.8500,
    33.0035,
    5.0738,
    6.8500,
    33.0035,
    12.4649,
    6.8500;
BuildingSurface:Detailed,
    L1_Zone_18_Ceiling_2,
    Ceiling,
    Interior Ceiling,
    L1_Zone_18,
    ,
    Surface,
    L2_Zone_37_Floor_1,
    NoSun,
    NoWind,
    ,
    4,
    28.0995,
    14.5728,
    6.8500,
    28.0995,
    12.5659,
    6.8500,
    30.8035,
    12.5659,
    6.8500,
    30.8035,
    14.5728,
    6.8500;
BuildingSurface:Detailed,
    L1_Zone_18_Ceiling_3,
    Ceiling,
    Interior Ceiling,
    L1_Zone_18,
    ,
    Surface,
    L2_Zone_38_Floor_1,
    NoSun,
    NoWind,
    ,
    4,
    30.9045,
    14.5728,
    6.8500,
    30.9045,
    12.5659,
    6.8500,
    32.6035,
    12.5659,
    6.8500,
    32.6035,
    14.5728,
    6.8500;
BuildingSurface:Detailed,
    L1_Zone_18_Ceiling_4,
    Ceiling,
    Interior Ceiling,
    L1_Zone_18,
    ,
    Surface,
    L2_Zone_39_Floor_1,
    NoSun,
    NoWind,
    ,
    4,
    32.7045,
    14.5728,
    6.8500,
    32.7045,
    12.5659,
    6.8500,
    34.5058,
    12.5659,
    6.8500,
    34.5058,
    14.5728,
    6.8500;
BuildingSurface:Detailed,
    L1_Zone_18_Roof_1,
    Roof,
    Interior Ceiling,
    L1_Zone_18,
    ,
    Adiabatic,
    ,
    NoSun,
    NoWind,
    ,
    4,
    28.0818,
    12.4649,
    6.8500,
    28.0818,
    5.0738,
    6.8500,
    28.0995,
    5.0738,
    6.8500,
    28.0995,
    12.4649,
    6.8500;
BuildingSurface:Detailed,
    L1_Zone_18_Roof_2,
    Roof,
    Interior Ceiling,
    L1_Zone_18,
    ,
    Adiabatic,
    ,
    NoSun,
    NoWind,
    ,
    4,
    28.0818,
    14.5728,
    6.8500,
    28.0818,
    12.5659,
    6.8500,
    28.0995,
    12.5659,
    6.8500,
    28.0995,
    14.5728,
    6.8500;
BuildingSurface:Detailed,
    L1_Zone_18_Roof_3,
    Roof,
    Interior Ceiling,
    L1_Zone_18,
    ,
    Adiabatic,
    ,
    NoSun,
    NoWind,
    ,
    4,
    28.0818,
    12.5659,
    6.8500,
    28.0818,
    12.4649,
    6.8500,
    34.5058,
    12.4649,
    6.8500,
    34.5058,
    12.5659,
    6.8500;
BuildingSurface:Detailed,
    L1_Zone_18_Roof_4,
    Roof,
    Interior Ceiling,
    L1_Zone_18,
    ,
    Adiabatic,
    ,
    NoSun,
    NoWind,
    ,
    4,
    30.8035,
    14.5728,
    6.8500,
    30.8035,
    12.5659,
    6.8500,
    30.9045,
    12.5659,
    6.8500,
    30.9045,
    14.5728,
    6.8500;
BuildingSurface:Detailed,
    L1_Zone_18_Roof_5,
    Roof,
    Interior Ceiling,
    L1_Zone_18,
    ,
    Adiabatic,
    ,
    NoSun,
    NoWind,
    ,
    4,
    32.6035,
    14.5728,
    6.8500,
    32.6035,
    12.5659,
    6.8500,
    32.7045,
    12.5659,
    6.8500,
    32.7045,
    14.5728,
    6.8500;
BuildingSurface:Detailed,
    L1_Zone_18_Roof_6,
    Roof,
    Exterior Roof,
    L1_Zone_18,
    ,
    Outdoors,
    ,
    SunExposed,
    WindExposed,
    ,
    4,
    33.0035,
    12.4649,
    6.8500,
    33.0035,
    5.0738,
    6.8500,
    34.5058,
    5.0738,
    6.8500,
    34.5058,
    12.4649,
    6.8500;
BuildingSurface:Detailed,
    L1_Zone_18_Wall_1,
    Wall,
    Exterior Wall,
    L1_Zone_18,
    ,
    Outdoors,
    ,
    SunExposed,
    WindExposed,
    ,
    4,
    34.5058,
    14.5728,
    6.8500,
    34.5058,
    14.5728,
    0.0000,
    28.0818,
    14.5728,
    0.0000,
    28.0818,
    14.5728,
    6.8500;
BuildingSurface:Detailed,
    L1_Zone_18_Wall_2,
    Wall,
    Interior Wall,
    L1_Zone_18,
    ,
    Surface,
    L1_Zone_17_Wall_8,
    NoSun,
    NoWind,
    ,
    4,
    28.0818,
    14.5728,
    6.8500,
    28.0818,
    14.5728,
    0.0000,
    28.0818,
    5.0738,
    0.0000,
    28.0818,
    5.0738,
    6.8500;
BuildingSurface:Detailed,
    L1_Zone_18_Wall_3,
    Wall,
    Exterior Wall,
    L1_Zone_18,
    ,
    Outdoors,
    ,
    SunExposed,
    WindExposed,
    ,
    4,
    28.0818,
    5.0738,
    6.8500,
    28.0818,
    5.0738,
    0.0000,
    34.5058,
    5.0738,
    0.0000,
    34.5058,
    5.0738,
    6.8500;
BuildingSurface:Detailed,
    L1_Zone_18_Wall_4,
    Wall,
    Exterior Wall,
    L1_Zone_18,
    ,
    Outdoors,
    ,
    SunExposed,
    WindExposed,
    ,
    4,
    34.5058,
    5.0738,
    6.8500,
    34.5058,
    5.0738,
    0.0000,
    34.5058,
    14.5728,
    0.0000,
    34.5058,
    14.5728,
    6.8500;
BuildingSurface:Detailed,
    L1_Zone_12_Floor_1,
    Floor,
    Exterior Floor,
    L1_Zone_12,
    ,
    Ground,
    ,
    NoSun,
    NoWind,
    ,
    4,
    13.9034,
    8.6720,
    0.0000,
    13.9034,
    5.0738,
    0.0000,
    7.5068,
    5.0738,
    0.0000,
    7.5068,
    8.6720,
    0.0000;
BuildingSurface:Detailed,
    L1_Zone_12_Floor_2,
    Floor,
    Exterior Floor,
    L1_Zone_12,
    ,
    Ground,
    ,
    NoSun,
    NoWind,
    ,
    4,
    20.9808,
    10.5728,
    0.0000,
    20.9808,
    8.6720,
    0.0000,
    7.5068,
    8.6720,
    0.0000,
    7.5068,
    10.5728,
    0.0000;
BuildingSurface:Detailed,
    L1_Zone_12_Floor_3,
    Floor,
    Exterior Floor,
    L1_Zone_12,
    ,
    Ground,
    ,
    NoSun,
    NoWind,
    ,
    4,
    20.9808,
    10.9728,
    0.0000,
    20.9808,
    10.5728,
    0.0000,
    11.5068,
    10.5728,
    0.0000,
    11.5068,
    10.9728,
    0.0000;
BuildingSurface:Detailed,
    L1_Zone_12_Ceiling_1,
    Ceiling,
    Interior Ceiling,
    L1_Zone_12,
    ,
    Surface,
    L2_Zone_30_Floor_1,
    NoSun,
    NoWind,
    ,
    4,
    7.5068,
    8.6720,
    6.8500,
    7.5068,
    5.0738,
    6.8500,
    13.9034,
    5.0738,
    6.8500,
    13.9034,
    8.6720,
    6.8500;
BuildingSurface:Detailed,
    L1_Zone_12_Ceiling_2,
    Ceiling,
    Interior Ceiling,
    L1_Zone_12,
    ,
    Surface,
    L2_Zone_30_Floor_2,
    NoSun,
    NoWind,
    ,
    4,
    7.5068,
    10.5728,
    6.8500,
    7.5068,
    8.6720,
    6.8500,
    20.9808,
    8.6720,
    6.8500,
    20.9808,
    10.5728,
    6.8500;
BuildingSurface:Detailed,
    L1_Zone_12_Ceiling_3,
    Ceiling,
    Interior Ceiling,
    L1_Zone_12,
    ,
    Surface,
    L2_Zone_30_Floor_3,
    NoSun,
    NoWind,
    ,
    4,
    11.5068,
    10.5800,
    6.8500,
    11.5068,
    10.5728,
    6.8500,
    20.9808,
    10.5728,
    6.8500,
    20.9808,
    10.5800,
    6.8500;
BuildingSurface:Detailed,
    L1_Zone_12_Ceiling_4,
    Ceiling,
    Interior Ceiling,
    L1_Zone_12,
    ,
    Surface,
    L2_Zone_30_Floor_4,
    NoSun,
    NoWind,
    ,
    4,
    11.5137,
    10.9728,
    6.8500,
    11.5137,
    10.5800,
    6.8500,
    20.9808,
    10.5800,
    6.8500,
    20.9808,
    10.9728,
    6.8500;
BuildingSurface:Detailed,
    L1_Zone_12_Roof_1,
    Roof,
    Interior Ceiling,
    L1_Zone_12,
    ,
    Adiabatic,
    ,
    NoSun,
    NoWind,
    ,
    4,
    11.5068,
    10.9728,
    6.8500,
    11.5068,
    10.5800,
    6.8500,
    11.5137,
    10.5800,
    6.8500,
    11.5137,
    10.9728,
    6.8500;
BuildingSurface:Detailed,
    L1_Zone_12_Wall_1,
    Wall,
    Exterior Wall,
    L1_Zone_12,
    ,
    Outdoors,
    ,
    SunExposed,
    WindExposed,
    ,
    4,
    7.5068,
    5.0738,
    6.8500,
    7.5068,
    5.0738,
    0.0000,
    13.9034,
    5.0738,
    0.0000,
    13.9034,
    5.0738,
    6.8500;
BuildingSurface:Detailed,
    L1_Zone_12_Wall_2,
    Wall,
    Interior Wall,
    L1_Zone_12,
    ,
    Surface,
    L1_Zone_19_Wall_4,
    NoSun,
    NoWind,
    ,
    4,
    13.9034,
    5.0738,
    6.8500,
    13.9034,
    5.0738,
    0.0000,
    13.9034,
    8.5710,
    0.0000,
    13.9034,
    8.5710,
    6.8500;
BuildingSurface:Detailed,
    L1_Zone_12_Wall_3,
    Wall,
    Interior Wall,
    L1_Zone_12,
    ,
    Adiabatic,
    ,
    NoSun,
    NoWind,
    ,
    4,
    13.9034,
    8.5710,
    6.8500,
    13.9034,
    8.5710,
    0.0000,
    13.9034,
    8.6720,
    0.0000,
    13.9034,
    8.6720,
    6.8500;
BuildingSurface:Detailed,
    L1_Zone_12_Wall_4,
    Wall,
    Interior Wall,
    L1_Zone_12,
    ,
    Adiabatic,
    ,
    NoSun,
    NoWind,
    ,
    4,
    13.9034,
    8.6720,
    6.8500,
    13.9034,
    8.6720,
    0.0000,
    14.0044,
    8.6720,
    0.0000,
    14.0044,
    8.6720,
    6.8500;
BuildingSurface:Detailed,
    L1_Zone_12_Wall_5,
    Wall,
    Interior Wall,
    L1_Zone_12,
    ,
    Surface,
    L1_Zone_19_Wall_3,
    NoSun,
    NoWind,
    ,
    4,
    14.0044,
    8.6720,
    6.8500,
    14.0044,
    8.6720,
    0.0000,
    20.9808,
    8.6720,
    0.0000,
    20.9808,
    8.6720,
    6.8500;
BuildingSurface:Detailed,
    L1_Zone_12_Wall_6,
    Wall,
    Interior Wall,
    L1_Zone_12,
    ,
    Surface,
    L1_Zone_17_Wall_4,
    NoSun,
    NoWind,
    ,
    4,
    20.9808,
    8.6720,
    6.8500,
    20.9808,
    8.6720,
    0.0000,
    20.9808,
    10.9728,
    0.0000,
    20.9808,
    10.9728,
    6.8500;
BuildingSurface:Detailed,
    L1_Zone_12_Wall_7,
    Wall,
    Interior Wall,
    L1_Zone_12,
    ,
    Adiabatic,
    ,
    NoSun,
    NoWind,
    ,
    4,
    17.8318,
    10.9728,
    6.8500,
    17.8318,
    10.9728,
    0.0000,
    17.7813,
    10.9728,
    0.0000,
    17.7813,
    10.9728,
    6.8500;
BuildingSurface:Detailed,
    L1_Zone_12_Wall_8,
    Wall,
    Interior Wall,
    L1_Zone_12,
    ,
    Surface,
    L1_Zone_16_Wall_3,
    NoSun,
    NoWind,
    ,
    4,
    20.9808,
    10.9728,
    6.8500,
    20.9808,
    10.9728,
    0.0000,
    17.8318,
    10.9728,
    0.0000,
    17.8318,
    10.9728,
    6.8500;
BuildingSurface:Detailed,
    L1_Zone_12_Wall_9,
    Wall,
    Interior Wall,
    L1_Zone_12,
    ,
    Adiabatic,
    ,
    NoSun,
    NoWind,
    ,
    4,
    14.5818,
    10.9728,
    6.8500,
    14.5818,
    10.9728,
    0.0000,
    14.5313,
    10.9728,
    0.0000,
    14.5313,
    10.9728,
    6.8500;
BuildingSurface:Detailed,
    L1_Zone_12_Wall_10,
    Wall,
    Interior Wall,
    L1_Zone_12,
    ,
    Surface,
    L1_Zone_15_Wall_3,
    NoSun,
    NoWind,
    ,
    4,
    17.7308,
    10.9728,
    6.8500,
    17.7308,
    10.9728,
    0.0000,
    14.5818,
    10.9728,
    0.0000,
    14.5818,
    10.9728,
    6.8500;
BuildingSurface:Detailed,
    L1_Zone_12_Wall_11,
    Wall,
    Interior Wall,
    L1_Zone_12,
    ,
    Adiabatic,
    ,
    NoSun,
    NoWind,
    ,
    4,
    17.7813,
    10.9728,
    6.8500,
    17.7813,
    10.9728,
    0.0000,
    17.7308,
    10.9728,
    0.0000,
    17.7308,
    10.9728,
    6.8500;
BuildingSurface:Detailed,
    L1_Zone_12_Wall_12,
    Wall,
    Interior Wall,
    L1_Zone_12,
    ,
    Surface,
    L1_Zone_14_Wall_3,
    NoSun,
    NoWind,
    ,
    4,
    14.4808,
    10.9728,
    6.8500,
    14.4808,
    10.9728,
    0.0000,
    11.5068,
    10.9728,
    0.0000,
    11.5068,
    10.9728,
    6.8500;
BuildingSurface:Detailed,
    L1_Zone_12_Wall_13,
    Wall,
    Interior Wall,
    L1_Zone_12,
    ,
    Adiabatic,
    ,
    NoSun,
    NoWind,
    ,
    4,
    14.5313,
    10.9728,
    6.8500,
    14.5313,
    10.9728,
    0.0000,
    14.4808,
    10.9728,
    0.0000,
    14.4808,
    10.9728,
    6.8500;
BuildingSurface:Detailed,
    L1_Zone_12_Wall_14,
    Wall,
    Interior Wall,
    L1_Zone_12,
    ,
    Adiabatic,
    ,
    NoSun,
    NoWind,
    ,
    4,
    11.5068,
    10.6738,
    6.8500,
    11.5068,
    10.6738,
    0.0000,
    11.5068,
    10.5728,
    0.0000,
    11.5068,
    10.5728,
    6.8500;
BuildingSurface:Detailed,
    L1_Zone_12_Wall_15,
    Wall,
    Interior Wall,
    L1_Zone_12,
    ,
    Surface,
    L1_Zone_13_Wall_4,
    NoSun,
    NoWind,
    ,
    4,
    11.5068,
    10.9728,
    6.8500,
    11.5068,
    10.9728,
    0.0000,
    11.5068,
    10.6738,
    0.0000,
    11.5068,
    10.6738,
    6.8500;
BuildingSurface:Detailed,
    L1_Zone_12_Wall_16,
    Wall,
    Interior Wall,
    L1_Zone_12,
    ,
    Surface,
    L1_Zone_13_Wall_3,
    NoSun,
    NoWind,
    ,
    4,
    11.4058,
    10.5728,
    6.8500,
    11.4058,
    10.5728,
    0.0000,
    7.5068,
    10.5728,
    0.0000,
    7.5068,
    10.5728,
    6.8500;
BuildingSurface:Detailed,
    L1_Zone_12_Wall_17,
    Wall,
    Interior Wall,
    L1_Zone_12,
    ,
    Adiabatic,
    ,
    NoSun,
    NoWind,
    ,
    4,
    11.5068,
    10.5728,
    6.8500,
    11.5068,
    10.5728,
    0.0000,
    11.4058,
    10.5728,
    0.0000,
    11.4058,
    10.5728,
    6.8500;
BuildingSurface:Detailed,
    L1_Zone_12_Wall_18,
    Wall,
    Interior Wall,
    L1_Zone_12,
    ,
    Surface,
    L1_Zone_11_Wall_4,
    NoSun,
    NoWind,
    ,
    4,
    7.5068,
    10.5728,
    6.8500,
    7.5068,
    10.5728,
    0.0000,
    7.5068,
    5.0738,
    0.0000,
    7.5068,
    5.0738,
    6.8500;
BuildingSurface:Detailed,
    L2_Zone_20_Floor_1,
    Floor,
    Interior Floor,
    L2_Zone_20,
    ,
    Surface,
    L1_Zone_2_Ceiling_1,
    NoSun,
    NoWind,
    ,
    4,
    -31.2942,
    9.9028,
    7.0000,
    -31.2942,
    8.1810,
    7.0000,
    -34.4932,
    8.1810,
    7.0000,
    -34.4932,
    9.9028,
    7.0000;
BuildingSurface:Detailed,
    L2_Zone_20_Floor_2,
    Floor,
    Interior Floor,
    L2_Zone_20,
    ,
    Surface,
    L1_Zone_2_Ceiling_2,
    NoSun,
    NoWind,
    ,
    4,
    -31.2942,
    12.8328,
    7.0000,
    -31.2942,
    9.9028,
    7.0000,
    -32.8932,
    9.9028,
    7.0000,
    -32.8932,
    12.8328,
    7.0000;
BuildingSurface:Detailed,
    L2_Zone_20_Floor_3,
    Floor,
    Interior Floor,
    L2_Zone_20,
    ,
    Surface,
    L1_Zone_1_Ceiling_1,
    NoSun,
    NoWind,
    ,
    4,
    -32.9942,
    12.9338,
    7.0000,
    -32.9942,
    10.0038,
    7.0000,
    -34.4932,
    10.0038,
    7.0000,
    -34.4932,
    12.9338,
    7.0000;
BuildingSurface:Detailed,
    L2_Zone_20_Floor_4,
    Floor,
    Interior Floor,
    L2_Zone_20,
    ,
    Surface,
    L1_Zone_1_Ceiling_2,
    NoSun,
    NoWind,
    ,
    4,
    -31.2942,
    14.5728,
    7.0000,
    -31.2942,
    12.9338,
    7.0000,
    -34.4932,
    12.9338,
    7.0000,
    -34.4932,
    14.5728,
    7.0000;
BuildingSurface:Detailed,
    L2_Zone_20_Floor_5,
    Floor,
    Interior Floor,
    L2_Zone_20,
    ,
    Adiabatic,
    ,
    NoSun,
    NoWind,
    ,
    4,
    -32.8932,
    10.0038,
    7.0000,
    -32.8932,
    9.9028,
    7.0000,
    -34.4932,
    9.9028,
    7.0000,
    -34.4932,
    10.0038,
    7.0000;
BuildingSurface:Detailed,
    L2_Zone_20_Floor_6,
    Floor,
    Interior Floor,
    L2_Zone_20,
    ,
    Adiabatic,
    ,
    NoSun,
    NoWind,
    ,
    4,
    -32.8932,
    12.8328,
    7.0000,
    -32.8932,
    10.0038,
    7.0000,
    -32.9942,
    10.0038,
    7.0000,
    -32.9942,
    12.8328,
    7.0000;
BuildingSurface:Detailed,
    L2_Zone_20_Floor_7,
    Floor,
    Interior Floor,
    L2_Zone_20,
    ,
    Adiabatic,
    ,
    NoSun,
    NoWind,
    ,
    4,
    -31.2873,
    12.9338,
    7.0000,
    -31.2873,
    12.8328,
    7.0000,
    -32.9942,
    12.8328,
    7.0000,
    -32.9942,
    12.9338,
    7.0000;
BuildingSurface:Detailed,
    L2_Zone_20_Floor_8,
    Floor,
    Interior Floor,
    L2_Zone_20,
    ,
    Adiabatic,
    ,
    NoSun,
    NoWind,
    ,
    4,
    -31.2873,
    12.8328,
    7.0000,
    -31.2873,
    8.1810,
    7.0000,
    -31.2942,
    8.1810,
    7.0000,
    -31.2942,
    12.8328,
    7.0000;
BuildingSurface:Detailed,
    L2_Zone_20_Floor_9,
    Floor,
    Interior Floor,
    L2_Zone_20,
    ,
    Adiabatic,
    ,
    NoSun,
    NoWind,
    ,
    4,
    -31.2873,
    14.5728,
    7.0000,
    -31.2873,
    12.9338,
    7.0000,
    -31.2942,
    12.9338,
    7.0000,
    -31.2942,
    14.5728,
    7.0000;
BuildingSurface:Detailed,
    L2_Zone_20_Roof_1,
    Roof,
    Exterior Roof,
    L2_Zone_20,
    ,
    Outdoors,
    ,
    SunExposed,
    WindExposed,
    ,
    4,
    -34.4932,
    14.5728,
    12.8500,
    -34.4932,
    8.1810,
    12.8500,
    -31.2873,
    8.1810,
    12.8500,
    -31.2873,
    14.5728,
    12.8500;
BuildingSurface:Detailed,
    L2_Zone_20_Wall_1,
    Wall,
    Exterior Wall,
    L2_Zone_20,
    ,
    Outdoors,
    ,
    SunExposed,
    WindExposed,
    ,
    4,
    -34.4932,
    14.5728,
    12.8500,
    -34.4932,
    14.5728,
    7.0000,
    -34.4932,
    8.1810,
    7.0000,
    -34.4932,
    8.1810,
    12.8500;
BuildingSurface:Detailed,
    L2_Zone_20_Wall_2,
    Wall,
    Interior Wall,
    L2_Zone_20,
    ,
    Surface,
    L2_Zone_21_Wall_12,
    NoSun,
    NoWind,
    ,
    4,
    -34.4932,
    8.1810,
    12.8500,
    -34.4932,
    8.1810,
    7.0000,
    -31.2873,
    8.1810,
    7.0000,
    -31.2873,
    8.1810,
    12.8500;
BuildingSurface:Detailed,
    L2_Zone_20_Wall_3,
    Wall,
    Interior Wall,
    L2_Zone_20,
    ,
    Surface,
    L2_Zone_21_Wall_11,
    NoSun,
    NoWind,
    ,
    4,
    -31.2873,
    8.1810,
    12.8500,
    -31.2873,
    8.1810,
    7.0000,
    -31.2873,
    14.5728,
    7.0000,
    -31.2873,
    14.5728,
    12.8500;
BuildingSurface:Detailed,
    L2_Zone_20_Wall_4,
    Wall,
    Exterior Wall,
    L2_Zone_20,
    ,
    Outdoors,
    ,
    SunExposed,
    WindExposed,
    ,
    4,
    -31.2873,
    14.5728,
    12.8500,
    -31.2873,
    14.5728,
    7.0000,
    -34.4932,
    14.5728,
    7.0000,
    -34.4932,
    14.5728,
    12.8500;
BuildingSurface:Detailed,
    L2_Zone_21_Floor_1,
    Floor,
    Interior Floor,
    L2_Zone_21,
    ,
    Surface,
    L1_Zone_7_Ceiling_1,
    NoSun,
    NoWind,
    ,
    4,
    -27.9942,
    -1.9273,
    7.0000,
    -27.9942,
    -5.8263,
    7.0000,
    -34.4932,
    -5.8263,
    7.0000,
    -34.4932,
    -1.9273,
    7.0000;
BuildingSurface:Detailed,
    L2_Zone_21_Floor_2,
    Floor,
    Interior Floor,
    L2_Zone_21,
    ,
    Surface,
    L1_Zone_6_Ceiling_1,
    NoSun,
    NoWind,
    ,
    4,
    -27.9942,
    1.5727,
    7.0000,
    -27.9942,
    -1.8263,
    7.0000,
    -34.4932,
    -1.8263,
    7.0000,
    -34.4932,
    1.5727,
    7.0000;
BuildingSurface:Detailed,
    L2_Zone_21_Floor_3,
    Floor,
    Interior Floor,
    L2_Zone_21,
    ,
    Surface,
    L1_Zone_5_Ceiling_1,
    NoSun,
    NoWind,
    ,
    4,
    -27.9942,
    3.5727,
    7.0000,
    -27.9942,
    1.6737,
    7.0000,
    -34.4932,
    1.6737,
    7.0000,
    -34.4932,
    3.5727,
    7.0000;
BuildingSurface:Detailed,
    L2_Zone_21_Floor_4,
    Floor,
    Interior Floor,
    L2_Zone_21,
    ,
    Surface,
    L1_Zone_4_Ceiling_1,
    NoSun,
    NoWind,
    ,
    4,
    -27.9942,
    8.0728,
    7.0000,
    -27.9942,
    3.6737,
    7.0000,
    -34.4932,
    3.6737,
    7.0000,
    -34.4932,
    8.0728,
    7.0000;
BuildingSurface:Detailed,
    L2_Zone_21_Floor_5,
    Floor,
    Interior Floor,
    L2_Zone_21,
    ,
    Surface,
    L1_Zone_3_Ceiling_1,
    NoSun,
    NoWind,
    ,
    4,
    -27.9942,
    14.5728,
    7.0000,
    -27.9942,
    8.1738,
    7.0000,
    -31.1863,
    8.1738,
    7.0000,
    -31.1863,
    14.5728,
    7.0000;
BuildingSurface:Detailed,
    L2_Zone_21_Floor_6,
    Floor,
    Interior Floor,
    L2_Zone_21,
    ,
    Surface,
    L1_Zone_8_Ceiling_1,
    NoSun,
    NoWind,
    ,
    4,
    -9.9944,
    14.5728,
    7.0000,
    -9.9944,
    4.9728,
    7.0000,
    -27.8932,
    4.9728,
    7.0000,
    -27.8932,
    14.5728,
    7.0000;
BuildingSurface:Detailed,
    L2_Zone_21_Floor_7,
    Floor,
    Interior Floor,
    L2_Zone_21,
    ,
    Surface,
    L1_Zone_8_Ceiling_2,
    NoSun,
    NoWind,
    ,
    4,
    -4.5873,
    4.9728,
    7.0000,
    -4.5873,
    -5.8263,
    7.0000,
    -27.8932,
    -5.8263,
    7.0000,
    -27.8932,
    4.9728,
    7.0000;
BuildingSurface:Detailed,
    L2_Zone_21_Floor_8,
    Floor,
    Interior Floor,
    L2_Zone_21,
    ,
    Surface,
    L1_Zone_9_Ceiling_1,
    NoSun,
    NoWind,
    ,
    4,
    -4.5873,
    14.5728,
    7.0000,
    -4.5873,
    5.0738,
    7.0000,
    -9.8934,
    5.0738,
    7.0000,
    -9.8934,
    14.5728,
    7.0000;
BuildingSurface:Detailed,
    L2_Zone_21_Floor_9,
    Floor,
    Interior Floor,
    L2_Zone_21,
    ,
    Adiabatic,
    ,
    NoSun,
    NoWind,
    ,
    4,
    -27.8932,
    -1.8263,
    7.0000,
    -27.8932,
    -1.9273,
    7.0000,
    -34.4932,
    -1.9273,
    7.0000,
    -34.4932,
    -1.8263,
    7.0000;
BuildingSurface:Detailed,
    L2_Zone_21_Floor_10,
    Floor,
    Interior Floor,
    L2_Zone_21,
    ,
    Adiabatic,
    ,
    NoSun,
    NoWind,
    ,
    4,
    -27.8932,
    1.6737,
    7.0000,
    -27.8932,
    1.5727,
    7.0000,
    -34.4932,
    1.5727,
    7.0000,
    -34.4932,
    1.6737,
    7.0000;
BuildingSurface:Detailed,
    L2_Zone_21_Floor_11,
    Floor,
    Interior Floor,
    L2_Zone_21,
    ,
    Adiabatic,
    ,
    NoSun,
    NoWind,
    ,
    4,
    -27.8932,
    3.6737,
    7.0000,
    -27.8932,
    3.5727,
    7.0000,
    -34.4932,
    3.5727,
    7.0000,
    -34.4932,
    3.6737,
    7.0000;
BuildingSurface:Detailed,
    L2_Zone_21_Floor_12,
    Floor,
    Interior Floor,
    L2_Zone_21,
    ,
    Adiabatic,
    ,
    NoSun,
    NoWind,
    ,
    4,
    -27.8932,
    8.0800,
    7.0000,
    -27.8932,
    8.0728,
    7.0000,
    -34.4932,
    8.0728,
    7.0000,
    -34.4932,
    8.0800,
    7.0000;
BuildingSurface:Detailed,
    L2_Zone_21_Floor_13,
    Floor,
    Interior Floor,
    L2_Zone_21,
    ,
    Adiabatic,
    ,
    NoSun,
    NoWind,
    ,
    4,
    -27.8932,
    8.1738,
    7.0000,
    -27.8932,
    8.0800,
    7.0000,
    -31.1863,
    8.0800,
    7.0000,
    -31.1863,
    8.1738,
    7.0000;
BuildingSurface:Detailed,
    L2_Zone_21_Floor_14,
    Floor,
    Interior Floor,
    L2_Zone_21,
    ,
    Adiabatic,
    ,
    NoSun,
    NoWind,
    ,
    4,
    -27.8932,
    -1.9273,
    7.0000,
    -27.8932,
    -5.8263,
    7.0000,
    -27.9942,
    -5.8263,
    7.0000,
    -27.9942,
    -1.9273,
    7.0000;
BuildingSurface:Detailed,
    L2_Zone_21_Floor_15,
    Floor,
    Interior Floor,
    L2_Zone_21,
    ,
    Adiabatic,
    ,
    NoSun,
    NoWind,
    ,
    4,
    -27.8932,
    1.5727,
    7.0000,
    -27.8932,
    -1.8263,
    7.0000,
    -27.9942,
    -1.8263,
    7.0000,
    -27.9942,
    1.5727,
    7.0000;
BuildingSurface:Detailed,
    L2_Zone_21_Floor_16,
    Floor,
    Interior Floor,
    L2_Zone_21,
    ,
    Adiabatic,
    ,
    NoSun,
    NoWind,
    ,
    4,
    -27.8932,
    3.5727,
    7.0000,
    -27.8932,
    1.6737,
    7.0000,
    -27.9942,
    1.6737,
    7.0000,
    -27.9942,
    3.5727,
    7.0000;
BuildingSurface:Detailed,
    L2_Zone_21_Floor_17,
    Floor,
    Interior Floor,
    L2_Zone_21,
    ,
    Adiabatic,
    ,
    NoSun,
    NoWind,
    ,
    4,
    -27.8932,
    8.0728,
    7.0000,
    -27.8932,
    3.6737,
    7.0000,
    -27.9942,
    3.6737,
    7.0000,
    -27.9942,
    8.0728,
    7.0000;
BuildingSurface:Detailed,
    L2_Zone_21_Floor_18,
    Floor,
    Interior Floor,
    L2_Zone_21,
    ,
    Adiabatic,
    ,
    NoSun,
    NoWind,
    ,
    4,
    -27.8932,
    14.5728,
    7.0000,
    -27.8932,
    8.1738,
    7.0000,
    -27.9942,
    8.1738,
    7.0000,
    -27.9942,
    14.5728,
    7.0000;
BuildingSurface:Detailed,
    L2_Zone_21_Floor_19,
    Floor,
    Interior Floor,
    L2_Zone_21,
    ,
    Adiabatic,
    ,
    NoSun,
    NoWind,
    ,
    4,
    -9.8934,
    14.5728,
    7.0000,
    -9.8934,
    5.0738,
    7.0000,
    -9.9944,
    5.0738,
    7.0000,
    -9.9944,
    14.5728,
    7.0000;
BuildingSurface:Detailed,
    L2_Zone_21_Floor_20,
    Floor,
    Interior Floor,
    L2_Zone_21,
    ,
    Adiabatic,
    ,
    NoSun,
    NoWind,
    ,
    4,
    -4.5873,
    5.0738,
    7.0000,
    -4.5873,
    4.9728,
    7.0000,
    -9.9944,
    4.9728,
    7.0000,
    -9.9944,
    5.0738,
    7.0000;
BuildingSurface:Detailed,
    L2_Zone_21_Roof_1,
    Roof,
    Exterior Roof,
    L2_Zone_21,
    ,
    Outdoors,
    ,
    SunExposed,
    WindExposed,
    ,
    4,
    -34.4932,
    8.0800,
    12.8500,
    -34.4932,
    -5.8263,
    12.8500,
    -4.5873,
    -5.8263,
    12.8500,
    -4.5873,
    8.0800,
    12.8500;
BuildingSurface:Detailed,
    L2_Zone_21_Roof_2,
    Roof,
    Exterior Roof,
    L2_Zone_21,
    ,
    Outdoors,
    ,
    SunExposed,
    WindExposed,
    ,
    4,
    -31.1863,
    14.5728,
    12.8500,
    -31.1863,
    8.0800,
    12.8500,
    -4.5873,
    8.0800,
    12.8500,
    -4.5873,
    14.5728,
    12.8500;
BuildingSurface:Detailed,
    L2_Zone_21_Wall_1,
    Wall,
    Exterior Wall,
    L2_Zone_21,
    ,
    Outdoors,
    ,
    SunExposed,
    WindExposed,
    ,
    4,
    -34.4932,
    -5.8263,
    12.8500,
    -34.4932,
    -5.8263,
    7.0000,
    -4.5873,
    -5.8263,
    7.0000,
    -4.5873,
    -5.8263,
    12.8500;
BuildingSurface:Detailed,
    L2_Zone_21_Wall_2,
    Wall,
    Interior Wall,
    L2_Zone_21,
    ,
    Surface,
    L2_Zone_25_Wall_2,
    NoSun,
    NoWind,
    ,
    4,
    -4.5873,
    -5.8263,
    12.8500,
    -4.5873,
    -5.8263,
    7.0000,
    -4.5873,
    4.9728,
    7.0000,
    -4.5873,
    4.9728,
    12.8500;
BuildingSurface:Detailed,
    L2_Zone_21_Wall_3,
    Wall,
    Interior Wall,
    L2_Zone_21,
    ,
    Adiabatic,
    ,
    NoSun,
    NoWind,
    ,
    4,
    -4.5873,
    4.9728,
    12.8500,
    -4.5873,
    4.9728,
    7.0000,
    -4.5873,
    5.0233,
    7.0000,
    -4.5873,
    5.0233,
    12.8500;
BuildingSurface:Detailed,
    L2_Zone_21_Wall_4,
    Wall,
    Interior Wall,
    L2_Zone_21,
    ,
    Adiabatic,
    ,
    NoSun,
    NoWind,
    ,
    4,
    -4.5873,
    5.0233,
    12.8500,
    -4.5873,
    5.0233,
    7.0000,
    -4.5873,
    5.0738,
    7.0000,
    -4.5873,
    5.0738,
    12.8500;
BuildingSurface:Detailed,
    L2_Zone_21_Wall_5,
    Wall,
    Interior Wall,
    L2_Zone_21,
    ,
    Surface,
    L2_Zone_27_Wall_20,
    NoSun,
    NoWind,
    ,
    4,
    -4.5873,
    5.0738,
    12.8500,
    -4.5873,
    5.0738,
    7.0000,
    -4.5873,
    7.3800,
    7.0000,
    -4.5873,
    7.3800,
    12.8500;
BuildingSurface:Detailed,
    L2_Zone_21_Wall_6,
    Wall,
    Interior Wall,
    L2_Zone_21,
    ,
    Adiabatic,
    ,
    NoSun,
    NoWind,
    ,
    4,
    -4.5873,
    7.3800,
    12.8500,
    -4.5873,
    7.3800,
    7.0000,
    -4.5873,
    7.4305,
    7.0000,
    -4.5873,
    7.4305,
    12.8500;
BuildingSurface:Detailed,
    L2_Zone_21_Wall_7,
    Wall,
    Interior Wall,
    L2_Zone_21,
    ,
    Adiabatic,
    ,
    NoSun,
    NoWind,
    ,
    4,
    -4.5873,
    7.4305,
    12.8500,
    -4.5873,
    7.4305,
    7.0000,
    -4.5873,
    7.4810,
    7.0000,
    -4.5873,
    7.4810,
    12.8500;
BuildingSurface:Detailed,
    L2_Zone_21_Wall_8,
    Wall,
    Interior Wall,
    L2_Zone_21,
    ,
    Surface,
    L2_Zone_22_Wall_1,
    NoSun,
    NoWind,
    ,
    4,
    -4.5873,
    7.4810,
    12.8500,
    -4.5873,
    7.4810,
    7.0000,
    -4.5873,
    14.5728,
    7.0000,
    -4.5873,
    14.5728,
    12.8500;
BuildingSurface:Detailed,
    L2_Zone_21_Wall_9,
    Wall,
    Exterior Wall,
    L2_Zone_21,
    ,
    Outdoors,
    ,
    SunExposed,
    WindExposed,
    ,
    4,
    -4.5873,
    14.5728,
    12.8500,
    -4.5873,
    14.5728,
    7.0000,
    -31.1863,
    14.5728,
    7.0000,
    -31.1863,
    14.5728,
    12.8500;
BuildingSurface:Detailed,
    L2_Zone_21_Wall_10,
    Wall,
    Interior Wall,
    L2_Zone_21,
    ,
    Adiabatic,
    ,
    NoSun,
    NoWind,
    ,
    4,
    -31.1863,
    8.1810,
    12.8500,
    -31.1863,
    8.1810,
    7.0000,
    -31.1863,
    8.0800,
    7.0000,
    -31.1863,
    8.0800,
    12.8500;
BuildingSurface:Detailed,
    L2_Zone_21_Wall_11,
    Wall,
    Interior Wall,
    L2_Zone_21,
    ,
    Surface,
    L2_Zone_20_Wall_3,
    NoSun,
    NoWind,
    ,
    4,
    -31.1863,
    14.5728,
    12.8500,
    -31.1863,
    14.5728,
    7.0000,
    -31.1863,
    8.1810,
    7.0000,
    -31.1863,
    8.1810,
    12.8500;
BuildingSurface:Detailed,
    L2_Zone_21_Wall_12,
    Wall,
    Interior Wall,
    L2_Zone_21,
    ,
    Surface,
    L2_Zone_20_Wall_2,
    NoSun,
    NoWind,
    ,
    4,
    -31.2873,
    8.0800,
    12.8500,
    -31.2873,
    8.0800,
    7.0000,
    -34.4932,
    8.0800,
    7.0000,
    -34.4932,
    8.0800,
    12.8500;
BuildingSurface:Detailed,
    L2_Zone_21_Wall_13,
    Wall,
    Interior Wall,
    L2_Zone_21,
    ,
    Adiabatic,
    ,
    NoSun,
    NoWind,
    ,
    4,
    -31.1863,
    8.0800,
    12.8500,
    -31.1863,
    8.0800,
    7.0000,
    -31.2873,
    8.0800,
    7.0000,
    -31.2873,
    8.0800,
    12.8500;
BuildingSurface:Detailed,
    L2_Zone_21_Wall_14,
    Wall,
    Exterior Wall,
    L2_Zone_21,
    ,
    Outdoors,
    ,
    SunExposed,
    WindExposed,
    ,
    4,
    -34.4932,
    8.0800,
    12.8500,
    -34.4932,
    8.0800,
    7.0000,
    -34.4932,
    -5.8263,
    7.0000,
    -34.4932,
    -5.8263,
    12.8500;
BuildingSurface:Detailed,
    L2_Zone_22_Floor_1,
    Floor,
    Interior Floor,
    L2_Zone_22,
    ,
    Surface,
    L1_Zone_9_Ceiling_3,
    NoSun,
    NoWind,
    ,
    4,
    -3.9942,
    14.5728,
    7.0000,
    -3.9942,
    7.4810,
    7.0000,
    -4.4863,
    7.4810,
    7.0000,
    -4.4863,
    14.5728,
    7.0000;
BuildingSurface:Detailed,
    L2_Zone_22_Floor_2,
    Floor,
    Interior Floor,
    L2_Zone_22,
    ,
    Surface,
    L1_Zone_10_Ceiling_3,
    NoSun,
    NoWind,
    ,
    4,
    -1.0873,
    14.5728,
    7.0000,
    -1.0873,
    7.4810,
    7.0000,
    -3.8932,
    7.4810,
    7.0000,
    -3.8932,
    14.5728,
    7.0000;
BuildingSurface:Detailed,
    L2_Zone_22_Floor_3,
    Floor,
    Interior Floor,
    L2_Zone_22,
    ,
    Adiabatic,
    ,
    NoSun,
    NoWind,
    ,
    4,
    -3.8932,
    14.5728,
    7.0000,
    -3.8932,
    7.4810,
    7.0000,
    -3.9942,
    7.4810,
    7.0000,
    -3.9942,
    14.5728,
    7.0000;
BuildingSurface:Detailed,
    L2_Zone_22_Roof_1,
    Roof,
    Exterior Roof,
    L2_Zone_22,
    ,
    Outdoors,
    ,
    SunExposed,
    WindExposed,
    ,
    4,
    -4.4863,
    14.5728,
    12.8500,
    -4.4863,
    7.4810,
    12.8500,
    -1.0873,
    7.4810,
    12.8500,
    -1.0873,
    14.5728,
    12.8500;
BuildingSurface:Detailed,
    L2_Zone_22_Wall_1,
    Wall,
    Interior Wall,
    L2_Zone_22,
    ,
    Surface,
    L2_Zone_21_Wall_8,
    NoSun,
    NoWind,
    ,
    4,
    -4.4863,
    14.5728,
    12.8500,
    -4.4863,
    14.5728,
    7.0000,
    -4.4863,
    7.4810,
    7.0000,
    -4.4863,
    7.4810,
    12.8500;
BuildingSurface:Detailed,
    L2_Zone_22_Wall_2,
    Wall,
    Interior Wall,
    L2_Zone_22,
    ,
    Surface,
    L2_Zone_27_Wall_18,
    NoSun,
    NoWind,
    ,
    4,
    -4.4863,
    7.4810,
    12.8500,
    -4.4863,
    7.4810,
    7.0000,
    -1.0873,
    7.4810,
    7.0000,
    -1.0873,
    7.4810,
    12.8500;
BuildingSurface:Detailed,
    L2_Zone_22_Wall_3,
    Wall,
    Interior Wall,
    L2_Zone_22,
    ,
    Surface,
    L2_Zone_24_Wall_4,
    NoSun,
    NoWind,
    ,
    4,
    -1.0873,
    7.4810,
    12.8500,
    -1.0873,
    7.4810,
    7.0000,
    -1.0873,
    10.5800,
    7.0000,
    -1.0873,
    10.5800,
    12.8500;
BuildingSurface:Detailed,
    L2_Zone_22_Wall_4,
    Wall,
    Interior Wall,
    L2_Zone_22,
    ,
    Adiabatic,
    ,
    NoSun,
    NoWind,
    ,
    4,
    -1.0873,
    10.5800,
    12.8500,
    -1.0873,
    10.5800,
    7.0000,
    -1.0873,
    10.6810,
    7.0000,
    -1.0873,
    10.6810,
    12.8500;
BuildingSurface:Detailed,
    L2_Zone_22_Wall_5,
    Wall,
    Interior Wall,
    L2_Zone_22,
    ,
    Surface,
    L2_Zone_23_Wall_4,
    NoSun,
    NoWind,
    ,
    4,
    -1.0873,
    10.6810,
    12.8500,
    -1.0873,
    10.6810,
    7.0000,
    -1.0873,
    14.5728,
    7.0000,
    -1.0873,
    14.5728,
    12.8500;
BuildingSurface:Detailed,
    L2_Zone_22_Wall_6,
    Wall,
    Exterior Wall,
    L2_Zone_22,
    ,
    Outdoors,
    ,
    SunExposed,
    WindExposed,
    ,
    4,
    -1.0873,
    14.5728,
    12.8500,
    -1.0873,
    14.5728,
    7.0000,
    -4.4863,
    14.5728,
    7.0000,
    -4.4863,
    14.5728,
    12.8500;
BuildingSurface:Detailed,
    L2_Zone_25_Floor_1,
    Floor,
    Interior Floor,
    L2_Zone_25,
    ,
    Surface,
    L1_Zone_8_Ceiling_3,
    NoSun,
    NoWind,
    ,
    4,
    2.0058,
    4.9728,
    7.0000,
    2.0058,
    -5.8263,
    7.0000,
    -4.4863,
    -5.8263,
    7.0000,
    -4.4863,
    4.9728,
    7.0000;
BuildingSurface:Detailed,
    L2_Zone_25_Roof_1,
    Roof,
    Exterior Roof,
    L2_Zone_25,
    ,
    Outdoors,
    ,
    SunExposed,
    WindExposed,
    ,
    4,
    -4.4863,
    4.9728,
    12.8500,
    -4.4863,
    -5.8263,
    12.8500,
    2.0058,
    -5.8263,
    12.8500,
    2.0058,
    4.9728,
    12.8500;
BuildingSurface:Detailed,
    L2_Zone_25_Wall_1,
    Wall,
    Interior Wall,
    L2_Zone_25,
    ,
    Surface,
    L2_Zone_27_Wall_1,
    NoSun,
    NoWind,
    ,
    4,
    2.0058,
    4.9728,
    12.8500,
    2.0058,
    4.9728,
    7.0000,
    -4.4863,
    4.9728,
    7.0000,
    -4.4863,
    4.9728,
    12.8500;
BuildingSurface:Detailed,
    L2_Zone_25_Wall_2,
    Wall,
    Interior Wall,
    L2_Zone_25,
    ,
    Surface,
    L2_Zone_21_Wall_2,
    NoSun,
    NoWind,
    ,
    4,
    -4.4863,
    4.9728,
    12.8500,
    -4.4863,
    4.9728,
    7.0000,
    -4.4863,
    -5.8263,
    7.0000,
    -4.4863,
    -5.8263,
    12.8500;
BuildingSurface:Detailed,
    L2_Zone_25_Wall_3,
    Wall,
    Exterior Wall,
    L2_Zone_25,
    ,
    Outdoors,
    ,
    SunExposed,
    WindExposed,
    ,
    4,
    -4.4863,
    -5.8263,
    12.8500,
    -4.4863,
    -5.8263,
    7.0000,
    2.0058,
    -5.8263,
    7.0000,
    2.0058,
    -5.8263,
    12.8500;
BuildingSurface:Detailed,
    L2_Zone_25_Wall_4,
    Wall,
    Interior Wall,
    L2_Zone_25,
    ,
    Adiabatic,
    ,
    NoSun,
    NoWind,
    ,
    4,
    2.0058,
    -5.8263,
    12.8500,
    2.0058,
    -5.8263,
    7.0000,
    2.0058,
    -0.8262,
    7.0000,
    2.0058,
    -0.8262,
    12.8500;
BuildingSurface:Detailed,
    L2_Zone_25_Wall_5,
    Wall,
    Interior Wall,
    L2_Zone_25,
    ,
    Surface,
    L2_Zone_28_Wall_2,
    NoSun,
    NoWind,
    ,
    4,
    2.0058,
    -0.8262,
    12.8500,
    2.0058,
    -0.8262,
    7.0000,
    2.0058,
    4.9728,
    7.0000,
    2.0058,
    4.9728,
    12.8500;
BuildingSurface:Detailed,
    L2_Zone_24_Floor_1,
    Floor,
    Interior Floor,
    L2_Zone_24,
    ,
    Surface,
    L1_Zone_10_Ceiling_4,
    NoSun,
    NoWind,
    ,
    4,
    1.4126,
    10.5800,
    7.0000,
    1.4126,
    7.4810,
    7.0000,
    -0.9863,
    7.4810,
    7.0000,
    -0.9863,
    10.5800,
    7.0000;
BuildingSurface:Detailed,
    L2_Zone_24_Roof_1,
    Roof,
    Exterior Roof,
    L2_Zone_24,
    ,
    Outdoors,
    ,
    SunExposed,
    WindExposed,
    ,
    4,
    -0.9863,
    10.5800,
    12.8500,
    -0.9863,
    7.4810,
    12.8500,
    1.4126,
    7.4810,
    12.8500,
    1.4126,
    10.5800,
    12.8500;
BuildingSurface:Detailed,
    L2_Zone_24_Wall_1,
    Wall,
    Interior Wall,
    L2_Zone_24,
    ,
    Surface,
    L2_Zone_27_Wall_16,
    NoSun,
    NoWind,
    ,
    4,
    -0.9863,
    7.4810,
    12.8500,
    -0.9863,
    7.4810,
    7.0000,
    1.4126,
    7.4810,
    7.0000,
    1.4126,
    7.4810,
    12.8500;
BuildingSurface:Detailed,
    L2_Zone_24_Wall_2,
    Wall,
    Interior Wall,
    L2_Zone_24,
    ,
    Surface,
    L2_Zone_27_Wall_13,
    NoSun,
    NoWind,
    ,
    4,
    1.4126,
    7.4810,
    12.8500,
    1.4126,
    7.4810,
    7.0000,
    1.4126,
    10.5800,
    7.0000,
    1.4126,
    10.5800,
    12.8500;
BuildingSurface:Detailed,
    L2_Zone_24_Wall_3,
    Wall,
    Interior Wall,
    L2_Zone_24,
    ,
    Surface,
    L2_Zone_23_Wall_5,
    NoSun,
    NoWind,
    ,
    4,
    1.4126,
    10.5800,
    12.8500,
    1.4126,
    10.5800,
    7.0000,
    -0.9863,
    10.5800,
    7.0000,
    -0.9863,
    10.5800,
    12.8500;
BuildingSurface:Detailed,
    L2_Zone_24_Wall_4,
    Wall,
    Interior Wall,
    L2_Zone_24,
    ,
    Surface,
    L2_Zone_22_Wall_3,
    NoSun,
    NoWind,
    ,
    4,
    -0.9863,
    10.5800,
    12.8500,
    -0.9863,
    10.5800,
    7.0000,
    -0.9863,
    7.4810,
    7.0000,
    -0.9863,
    7.4810,
    12.8500;
BuildingSurface:Detailed,
    L2_Zone_23_Floor_1,
    Floor,
    Interior Floor,
    L2_Zone_23,
    ,
    Surface,
    L1_Zone_10_Ceiling_5,
    NoSun,
    NoWind,
    ,
    4,
    1.4126,
    14.5728,
    7.0000,
    1.4126,
    10.6810,
    7.0000,
    -0.9863,
    10.6810,
    7.0000,
    -0.9863,
    14.5728,
    7.0000;
BuildingSurface:Detailed,
    L2_Zone_23_Roof_1,
    Roof,
    Exterior Roof,
    L2_Zone_23,
    ,
    Outdoors,
    ,
    SunExposed,
    WindExposed,
    ,
    4,
    -0.9863,
    14.5728,
    12.8500,
    -0.9863,
    10.6810,
    12.8500,
    1.4126,
    10.6810,
    12.8500,
    1.4126,
    14.5728,
    12.8500;
BuildingSurface:Detailed,
    L2_Zone_23_Wall_1,
    Wall,
    Interior Wall,
    L2_Zone_23,
    ,
    Surface,
    L2_Zone_27_Wall_11,
    NoSun,
    NoWind,
    ,
    4,
    1.4126,
    10.6810,
    12.8500,
    1.4126,
    10.6810,
    7.0000,
    1.4126,
    13.0800,
    7.0000,
    1.4126,
    13.0800,
    12.8500;
BuildingSurface:Detailed,
    L2_Zone_23_Wall_2,
    Wall,
    Interior Wall,
    L2_Zone_23,
    ,
    Adiabatic,
    ,
    NoSun,
    NoWind,
    ,
    4,
    1.4126,
    13.0800,
    12.8500,
    1.4126,
    13.0800,
    7.0000,
    1.4126,
    14.5728,
    7.0000,
    1.4126,
    14.5728,
    12.8500;
BuildingSurface:Detailed,
    L2_Zone_23_Wall_3,
    Wall,
    Exterior Wall,
    L2_Zone_23,
    ,
    Outdoors,
    ,
    SunExposed,
    WindExposed,
    ,
    4,
    1.4126,
    14.5728,
    12.8500,
    1.4126,
    14.5728,
    7.0000,
    -0.9863,
    14.5728,
    7.0000,
    -0.9863,
    14.5728,
    12.8500;
BuildingSurface:Detailed,
    L2_Zone_23_Wall_4,
    Wall,
    Interior Wall,
    L2_Zone_23,
    ,
    Surface,
    L2_Zone_22_Wall_5,
    NoSun,
    NoWind,
    ,
    4,
    -0.9863,
    14.5728,
    12.8500,
    -0.9863,
    14.5728,
    7.0000,
    -0.9863,
    10.6810,
    7.0000,
    -0.9863,
    10.6810,
    12.8500;
BuildingSurface:Detailed,
    L2_Zone_23_Wall_5,
    Wall,
    Interior Wall,
    L2_Zone_23,
    ,
    Surface,
    L2_Zone_24_Wall_3,
    NoSun,
    NoWind,
    ,
    4,
    -0.9863,
    10.6810,
    12.8500,
    -0.9863,
    10.6810,
    7.0000,
    1.4126,
    10.6810,
    7.0000,
    1.4126,
    10.6810,
    12.8500;
BuildingSurface:Detailed,
    L2_Zone_27_Floor_1,
    Floor,
    Interior Floor,
    L2_Zone_27,
    ,
    Surface,
    L1_Zone_9_Ceiling_2,
    NoSun,
    NoWind,
    ,
    4,
    -3.9942,
    7.3800,
    7.0000,
    -3.9942,
    5.0738,
    7.0000,
    -4.4863,
    5.0738,
    7.0000,
    -4.4863,
    7.3800,
    7.0000;
BuildingSurface:Detailed,
    L2_Zone_27_Floor_2,
    Floor,
    Interior Floor,
    L2_Zone_27,
    ,
    Surface,
    L1_Zone_10_Ceiling_1,
    NoSun,
    NoWind,
    ,
    4,
    2.0058,
    7.3800,
    7.0000,
    2.0058,
    5.0738,
    7.0000,
    -3.8932,
    5.0738,
    7.0000,
    -3.8932,
    7.3800,
    7.0000;
BuildingSurface:Detailed,
    L2_Zone_27_Floor_3,
    Floor,
    Interior Floor,
    L2_Zone_27,
    ,
    Surface,
    L1_Zone_10_Ceiling_2,
    NoSun,
    NoWind,
    ,
    4,
    2.0058,
    13.0800,
    7.0000,
    2.0058,
    7.3800,
    7.0000,
    1.5136,
    7.3800,
    7.0000,
    1.5136,
    13.0800,
    7.0000;
BuildingSurface:Detailed,
    L2_Zone_27_Floor_4,
    Floor,
    Interior Floor,
    L2_Zone_27,
    ,
    Surface,
    L1_Zone_11_Ceiling_1,
    NoSun,
    NoWind,
    ,
    4,
    7.4058,
    13.0800,
    7.0000,
    7.4058,
    5.0738,
    7.0000,
    2.1068,
    5.0738,
    7.0000,
    2.1068,
    13.0800,
    7.0000;
BuildingSurface:Detailed,
    L2_Zone_27_Floor_5,
    Floor,
    Interior Floor,
    L2_Zone_27,
    ,
    Adiabatic,
    ,
    NoSun,
    NoWind,
    ,
    4,
    -3.8932,
    7.3800,
    7.0000,
    -3.8932,
    5.0738,
    7.0000,
    -3.9942,
    5.0738,
    7.0000,
    -3.9942,
    7.3800,
    7.0000;
BuildingSurface:Detailed,
    L2_Zone_27_Floor_6,
    Floor,
    Interior Floor,
    L2_Zone_27,
    ,
    Adiabatic,
    ,
    NoSun,
    NoWind,
    ,
    4,
    2.1068,
    13.0800,
    7.0000,
    2.1068,
    5.0738,
    7.0000,
    2.0058,
    5.0738,
    7.0000,
    2.0058,
    13.0800,
    7.0000;
BuildingSurface:Detailed,
    L2_Zone_27_Roof_1,
    Roof,
    Exterior Roof,
    L2_Zone_27,
    ,
    Outdoors,
    ,
    SunExposed,
    WindExposed,
    ,
    4,
    -4.4863,
    7.3800,
    12.8500,
    -4.4863,
    5.0738,
    12.8500,
    7.4058,
    5.0738,
    12.8500,
    7.4058,
    7.3800,
    12.8500;
BuildingSurface:Detailed,
    L2_Zone_27_Roof_2,
    Roof,
    Exterior Roof,
    L2_Zone_27,
    ,
    Outdoors,
    ,
    SunExposed,
    WindExposed,
    ,
    4,
    1.5136,
    13.0800,
    12.8500,
    1.5136,
    7.3800,
    12.8500,
    7.4058,
    7.3800,
    12.8500,
    7.4058,
    13.0800,
    12.8500;
BuildingSurface:Detailed,
    L2_Zone_27_Wall_1,
    Wall,
    Interior Wall,
    L2_Zone_27,
    ,
    Surface,
    L2_Zone_25_Wall_1,
    NoSun,
    NoWind,
    ,
    4,
    -4.4863,
    5.0738,
    12.8500,
    -4.4863,
    5.0738,
    7.0000,
    2.0058,
    5.0738,
    7.0000,
    2.0058,
    5.0738,
    12.8500;
BuildingSurface:Detailed,
    L2_Zone_27_Wall_2,
    Wall,
    Interior Wall,
    L2_Zone_27,
    ,
    Adiabatic,
    ,
    NoSun,
    NoWind,
    ,
    4,
    2.0058,
    5.0738,
    12.8500,
    2.0058,
    5.0738,
    7.0000,
    2.0563,
    5.0738,
    7.0000,
    2.0563,
    5.0738,
    12.8500;
BuildingSurface:Detailed,
    L2_Zone_27_Wall_3,
    Wall,
    Interior Wall,
    L2_Zone_27,
    ,
    Adiabatic,
    ,
    NoSun,
    NoWind,
    ,
    4,
    2.0563,
    5.0738,
    12.8500,
    2.0563,
    5.0738,
    7.0000,
    2.1068,
    5.0738,
    7.0000,
    2.1068,
    5.0738,
    12.8500;
BuildingSurface:Detailed,
    L2_Zone_27_Wall_4,
    Wall,
    Interior Wall,
    L2_Zone_27,
    ,
    Surface,
    L2_Zone_28_Wall_1,
    NoSun,
    NoWind,
    ,
    4,
    2.1068,
    5.0738,
    12.8500,
    2.1068,
    5.0738,
    7.0000,
    7.4058,
    5.0738,
    7.0000,
    7.4058,
    5.0738,
    12.8500;
BuildingSurface:Detailed,
    L2_Zone_27_Wall_5,
    Wall,
    Interior Wall,
    L2_Zone_27,
    ,
    Surface,
    L2_Zone_30_Wall_24,
    NoSun,
    NoWind,
    ,
    4,
    7.4058,
    5.0738,
    12.8500,
    7.4058,
    5.0738,
    7.0000,
    7.4058,
    10.5800,
    7.0000,
    7.4058,
    10.5800,
    12.8500;
BuildingSurface:Detailed,
    L2_Zone_27_Wall_6,
    Wall,
    Interior Wall,
    L2_Zone_27,
    ,
    Adiabatic,
    ,
    NoSun,
    NoWind,
    ,
    4,
    7.4058,
    10.5800,
    12.8500,
    7.4058,
    10.5800,
    7.0000,
    7.4058,
    10.6305,
    7.0000,
    7.4058,
    10.6305,
    12.8500;
BuildingSurface:Detailed,
    L2_Zone_27_Wall_7,
    Wall,
    Interior Wall,
    L2_Zone_27,
    ,
    Adiabatic,
    ,
    NoSun,
    NoWind,
    ,
    4,
    7.4058,
    10.6305,
    12.8500,
    7.4058,
    10.6305,
    7.0000,
    7.4058,
    10.6810,
    7.0000,
    7.4058,
    10.6810,
    12.8500;
BuildingSurface:Detailed,
    L2_Zone_27_Wall_8,
    Wall,
    Interior Wall,
    L2_Zone_27,
    ,
    Surface,
    L2_Zone_31_Wall_1,
    NoSun,
    NoWind,
    ,
    4,
    7.4058,
    10.6810,
    12.8500,
    7.4058,
    10.6810,
    7.0000,
    7.4058,
    13.0800,
    7.0000,
    7.4058,
    13.0800,
    12.8500;
BuildingSurface:Detailed,
    L2_Zone_27_Wall_9,
    Wall,
    Exterior Wall,
    L2_Zone_27,
    ,
    Outdoors,
    ,
    SunExposed,
    WindExposed,
    ,
    4,
    7.4058,
    13.0800,
    12.8500,
    7.4058,
    13.0800,
    7.0000,
    1.5136,
    13.0800,
    7.0000,
    1.5136,
    13.0800,
    12.8500;
BuildingSurface:Detailed,
    L2_Zone_27_Wall_10,
    Wall,
    Interior Wall,
    L2_Zone_27,
    ,
    Adiabatic,
    ,
    NoSun,
    NoWind,
    ,
    4,
    1.5136,
    10.6810,
    12.8500,
    1.5136,
    10.6810,
    7.0000,
    1.5136,
    10.6305,
    7.0000,
    1.5136,
    10.6305,
    12.8500;
BuildingSurface:Detailed,
    L2_Zone_27_Wall_11,
    Wall,
    Interior Wall,
    L2_Zone_27,
    ,
    Surface,
    L2_Zone_23_Wall_1,
    NoSun,
    NoWind,
    ,
    4,
    1.5136,
    13.0800,
    12.8500,
    1.5136,
    13.0800,
    7.0000,
    1.5136,
    10.6810,
    7.0000,
    1.5136,
    10.6810,
    12.8500;
BuildingSurface:Detailed,
    L2_Zone_27_Wall_12,
    Wall,
    Interior Wall,
    L2_Zone_27,
    ,
    Adiabatic,
    ,
    NoSun,
    NoWind,
    ,
    4,
    1.5136,
    7.4810,
    12.8500,
    1.5136,
    7.4810,
    7.0000,
    1.5136,
    7.3800,
    7.0000,
    1.5136,
    7.3800,
    12.8500;
BuildingSurface:Detailed,
    L2_Zone_27_Wall_13,
    Wall,
    Interior Wall,
    L2_Zone_27,
    ,
    Surface,
    L2_Zone_24_Wall_2,
    NoSun,
    NoWind,
    ,
    4,
    1.5136,
    10.5800,
    12.8500,
    1.5136,
    10.5800,
    7.0000,
    1.5136,
    7.4810,
    7.0000,
    1.5136,
    7.4810,
    12.8500;
BuildingSurface:Detailed,
    L2_Zone_27_Wall_14,
    Wall,
    Interior Wall,
    L2_Zone_27,
    ,
    Adiabatic,
    ,
    NoSun,
    NoWind,
    ,
    4,
    1.5136,
    10.6305,
    12.8500,
    1.5136,
    10.6305,
    7.0000,
    1.5136,
    10.5800,
    7.0000,
    1.5136,
    10.5800,
    12.8500;
BuildingSurface:Detailed,
    L2_Zone_27_Wall_15,
    Wall,
    Interior Wall,
    L2_Zone_27,
    ,
    Adiabatic,
    ,
    NoSun,
    NoWind,
    ,
    4,
    -0.9863,
    7.3800,
    12.8500,
    -0.9863,
    7.3800,
    7.0000,
    -1.0368,
    7.3800,
    7.0000,
    -1.0368,
    7.3800,
    12.8500;
BuildingSurface:Detailed,
    L2_Zone_27_Wall_16,
    Wall,
    Interior Wall,
    L2_Zone_27,
    ,
    Surface,
    L2_Zone_24_Wall_1,
    NoSun,
    NoWind,
    ,
    4,
    1.4126,
    7.3800,
    12.8500,
    1.4126,
    7.3800,
    7.0000,
    -0.9863,
    7.3800,
    7.0000,
    -0.9863,
    7.3800,
    12.8500;
BuildingSurface:Detailed,
    L2_Zone_27_Wall_17,
    Wall,
    Interior Wall,
    L2_Zone_27,
    ,
    Adiabatic,
    ,
    NoSun,
    NoWind,
    ,
    4,
    1.5136,
    7.3800,
    12.8500,
    1.5136,
    7.3800,
    7.0000,
    1.4126,
    7.3800,
    7.0000,
    1.4126,
    7.3800,
    12.8500;
BuildingSurface:Detailed,
    L2_Zone_27_Wall_18,
    Wall,
    Interior Wall,
    L2_Zone_27,
    ,
    Surface,
    L2_Zone_22_Wall_2,
    NoSun,
    NoWind,
    ,
    4,
    -1.0873,
    7.3800,
    12.8500,
    -1.0873,
    7.3800,
    7.0000,
    -4.4863,
    7.3800,
    7.0000,
    -4.4863,
    7.3800,
    12.8500;
BuildingSurface:Detailed,
    L2_Zone_27_Wall_19,
    Wall,
    Interior Wall,
    L2_Zone_27,
    ,
    Adiabatic,
    ,
    NoSun,
    NoWind,
    ,
    4,
    -1.0368,
    7.3800,
    12.8500,
    -1.0368,
    7.3800,
    7.0000,
    -1.0873,
    7.3800,
    7.0000,
    -1.0873,
    7.3800,
    12.8500;
BuildingSurface:Detailed,
    L2_Zone_27_Wall_20,
    Wall,
    Interior Wall,
    L2_Zone_27,
    ,
    Surface,
    L2_Zone_21_Wall_5,
    NoSun,
    NoWind,
    ,
    4,
    -4.4863,
    7.3800,
    12.8500,
    -4.4863,
    7.3800,
    7.0000,
    -4.4863,
    5.0738,
    7.0000,
    -4.4863,
    5.0738,
    12.8500;
BuildingSurface:Detailed,
    L2_Zone_28_Floor_1,
    Floor,
    Interior Floor,
    L2_Zone_28,
    ,
    Surface,
    L1_Zone_8_Ceiling_4,
    NoSun,
    NoWind,
    ,
    4,
    7.4058,
    4.9728,
    7.0000,
    7.4058,
    -0.8262,
    7.0000,
    2.1068,
    -0.8262,
    7.0000,
    2.1068,
    4.9728,
    7.0000;
BuildingSurface:Detailed,
    L2_Zone_28_Roof_1,
    Roof,
    Exterior Roof,
    L2_Zone_28,
    ,
    Outdoors,
    ,
    SunExposed,
    WindExposed,
    ,
    4,
    2.1068,
    4.9728,
    12.8500,
    2.1068,
    -0.8262,
    12.8500,
    7.4058,
    -0.8262,
    12.8500,
    7.4058,
    4.9728,
    12.8500;
BuildingSurface:Detailed,
    L2_Zone_28_Wall_1,
    Wall,
    Interior Wall,
    L2_Zone_28,
    ,
    Surface,
    L2_Zone_27_Wall_4,
    NoSun,
    NoWind,
    ,
    4,
    7.4058,
    4.9728,
    12.8500,
    7.4058,
    4.9728,
    7.0000,
    2.1068,
    4.9728,
    7.0000,
    2.1068,
    4.9728,
    12.8500;
BuildingSurface:Detailed,
    L2_Zone_28_Wall_2,
    Wall,
    Interior Wall,
    L2_Zone_28,
    ,
    Surface,
    L2_Zone_25_Wall_5,
    NoSun,
    NoWind,
    ,
    4,
    2.1068,
    4.9728,
    12.8500,
    2.1068,
    4.9728,
    7.0000,
    2.1068,
    -0.8262,
    7.0000,
    2.1068,
    -0.8262,
    12.8500;
BuildingSurface:Detailed,
    L2_Zone_28_Wall_3,
    Wall,
    Exterior Wall,
    L2_Zone_28,
    ,
    Outdoors,
    ,
    SunExposed,
    WindExposed,
    ,
    4,
    2.1068,
    -0.8262,
    12.8500,
    2.1068,
    -0.8262,
    7.0000,
    7.4058,
    -0.8262,
    7.0000,
    7.4058,
    -0.8262,
    12.8500;
BuildingSurface:Detailed,
    L2_Zone_28_Wall_4,
    Wall,
    Interior Wall,
    L2_Zone_28,
    ,
    Surface,
    L2_Zone_29_Wall_5,
    NoSun,
    NoWind,
    ,
    4,
    7.4058,
    -0.8262,
    12.8500,
    7.4058,
    -0.8262,
    7.0000,
    7.4058,
    4.9728,
    7.0000,
    7.4058,
    4.9728,
    12.8500;
BuildingSurface:Detailed,
    L2_Zone_29_Floor_1,
    Floor,
    Exterior Floor,
    L2_Zone_29,
    ,
    Outdoors,
    ,
    SunExposed,
    WindExposed,
    ,
    4,
    17.0035,
    4.9728,
    7.0000,
    17.0035,
    -5.8262,
    7.0000,
    7.5068,
    -5.8262,
    7.0000,
    7.5068,
    4.9728,
    7.0000;
BuildingSurface:Detailed,
    L2_Zone_29_Roof_1,
    Roof,
    Exterior Roof,
    L2_Zone_29,
    ,
    Outdoors,
    ,
    SunExposed,
    WindExposed,
    ,
    4,
    7.5068,
    4.9728,
    12.8500,
    7.5068,
    -5.8262,
    12.8500,
    17.0035,
    -5.8262,
    12.8500,
    17.0035,
    4.9728,
    12.8500;
BuildingSurface:Detailed,
    L2_Zone_29_Wall_1,
    Wall,
    Interior Wall,
    L2_Zone_29,
    ,
    Surface,
    L2_Zone_30_Wall_1,
    NoSun,
    NoWind,
    ,
    4,
    13.9034,
    4.9728,
    12.8500,
    13.9034,
    4.9728,
    7.0000,
    7.5068,
    4.9728,
    7.0000,
    7.5068,
    4.9728,
    12.8500;
BuildingSurface:Detailed,
    L2_Zone_29_Wall_2,
    Wall,
    Interior Wall,
    L2_Zone_29,
    ,
    Adiabatic,
    ,
    NoSun,
    NoWind,
    ,
    4,
    14.0044,
    4.9728,
    12.8500,
    14.0044,
    4.9728,
    7.0000,
    13.9034,
    4.9728,
    7.0000,
    13.9034,
    4.9728,
    12.8500;
BuildingSurface:Detailed,
    L2_Zone_29_Wall_3,
    Wall,
    Interior Wall,
    L2_Zone_29,
    ,
    Surface,
    L2_Zone_42_Wall_1,
    NoSun,
    NoWind,
    ,
    4,
    17.0035,
    4.9728,
    12.8500,
    17.0035,
    4.9728,
    7.0000,
    14.0044,
    4.9728,
    7.0000,
    14.0044,
    4.9728,
    12.8500;
BuildingSurface:Detailed,
    L2_Zone_29_Wall_4,
    Wall,
    Interior Wall,
    L2_Zone_29,
    ,
    Adiabatic,
    ,
    NoSun,
    NoWind,
    ,
    4,
    7.5068,
    -0.8262,
    12.8500,
    7.5068,
    -0.8262,
    7.0000,
    7.5068,
    -5.8262,
    7.0000,
    7.5068,
    -5.8262,
    12.8500;
BuildingSurface:Detailed,
    L2_Zone_29_Wall_5,
    Wall,
    Interior Wall,
    L2_Zone_29,
    ,
    Surface,
    L2_Zone_28_Wall_4,
    NoSun,
    NoWind,
    ,
    4,
    7.5068,
    4.9728,
    12.8500,
    7.5068,
    4.9728,
    7.0000,
    7.5068,
    -0.8262,
    7.0000,
    7.5068,
    -0.8262,
    12.8500;
BuildingSurface:Detailed,
    L2_Zone_29_Wall_6,
    Wall,
    Exterior Wall,
    L2_Zone_29,
    ,
    Outdoors,
    ,
    SunExposed,
    WindExposed,
    ,
    4,
    7.5068,
    -5.8262,
    12.8500,
    7.5068,
    -5.8262,
    7.0000,
    17.0035,
    -5.8262,
    7.0000,
    17.0035,
    -5.8262,
    12.8500;
BuildingSurface:Detailed,
    L2_Zone_29_Wall_7,
    Wall,
    Interior Wall,
    L2_Zone_29,
    ,
    Surface,
    L2_Zone_44_Wall_4,
    NoSun,
    NoWind,
    ,
    4,
    17.0035,
    -5.8262,
    12.8500,
    17.0035,
    -5.8262,
    7.0000,
    17.0035,
    -1.4352,
    7.0000,
    17.0035,
    -1.4352,
    12.8500;
BuildingSurface:Detailed,
    L2_Zone_29_Wall_8,
    Wall,
    Interior Wall,
    L2_Zone_29,
    ,
    Adiabatic,
    ,
    NoSun,
    NoWind,
    ,
    4,
    17.0035,
    -1.4352,
    12.8500,
    17.0035,
    -1.4352,
    7.0000,
    17.0035,
    -1.3342,
    7.0000,
    17.0035,
    -1.3342,
    12.8500;
BuildingSurface:Detailed,
    L2_Zone_29_Wall_9,
    Wall,
    Interior Wall,
    L2_Zone_29,
    ,
    Surface,
    L2_Zone_43_Wall_2,
    NoSun,
    NoWind,
    ,
    4,
    17.0035,
    -1.3342,
    12.8500,
    17.0035,
    -1.3342,
    7.0000,
    17.0035,
    4.9728,
    7.0000,
    17.0035,
    4.9728,
    12.8500;
BuildingSurface:Detailed,
    L2_Zone_30_Floor_1,
    Floor,
    Interior Floor,
    L2_Zone_30,
    ,
    Surface,
    L1_Zone_12_Ceiling_1,
    NoSun,
    NoWind,
    ,
    4,
    13.9034,
    8.6720,
    7.0000,
    13.9034,
    5.0738,
    7.0000,
    7.5068,
    5.0738,
    7.0000,
    7.5068,
    8.6720,
    7.0000;
BuildingSurface:Detailed,
    L2_Zone_30_Floor_2,
    Floor,
    Interior Floor,
    L2_Zone_30,
    ,
    Surface,
    L1_Zone_12_Ceiling_2,
    NoSun,
    NoWind,
    ,
    4,
    20.9808,
    10.5728,
    7.0000,
    20.9808,
    8.6720,
    7.0000,
    7.5068,
    8.6720,
    7.0000,
    7.5068,
    10.5728,
    7.0000;
BuildingSurface:Detailed,
    L2_Zone_30_Floor_3,
    Floor,
    Interior Floor,
    L2_Zone_30,
    ,
    Surface,
    L1_Zone_12_Ceiling_3,
    NoSun,
    NoWind,
    ,
    4,
    20.9808,
    10.5800,
    7.0000,
    20.9808,
    10.5728,
    7.0000,
    11.5068,
    10.5728,
    7.0000,
    11.5068,
    10.5800,
    7.0000;
BuildingSurface:Detailed,
    L2_Zone_30_Floor_4,
    Floor,
    Interior Floor,
    L2_Zone_30,
    ,
    Surface,
    L1_Zone_12_Ceiling_4,
    NoSun,
    NoWind,
    ,
    4,
    20.9808,
    10.9728,
    7.0000,
    20.9808,
    10.5800,
    7.0000,
    11.5137,
    10.5800,
    7.0000,
    11.5137,
    10.9728,
    7.0000;
BuildingSurface:Detailed,
    L2_Zone_30_Floor_5,
    Floor,
    Interior Floor,
    L2_Zone_30,
    ,
    Surface,
    L1_Zone_17_Ceiling_1,
    NoSun,
    NoWind,
    ,
    4,
    27.9808,
    10.9800,
    7.0000,
    27.9808,
    8.6720,
    7.0000,
    21.0818,
    8.6720,
    7.0000,
    21.0818,
    10.9800,
    7.0000;
BuildingSurface:Detailed,
    L2_Zone_30_Floor_6,
    Floor,
    Interior Floor,
    L2_Zone_30,
    ,
    Adiabatic,
    ,
    NoSun,
    NoWind,
    ,
    4,
    11.5068,
    10.5800,
    7.0000,
    11.5068,
    10.5728,
    7.0000,
    7.5068,
    10.5728,
    7.0000,
    7.5068,
    10.5800,
    7.0000;
BuildingSurface:Detailed,
    L2_Zone_30_Floor_7,
    Floor,
    Interior Floor,
    L2_Zone_30,
    ,
    Adiabatic,
    ,
    NoSun,
    NoWind,
    ,
    4,
    21.0818,
    10.9800,
    7.0000,
    21.0818,
    10.9728,
    7.0000,
    11.5137,
    10.9728,
    7.0000,
    11.5137,
    10.9800,
    7.0000;
BuildingSurface:Detailed,
    L2_Zone_30_Floor_8,
    Floor,
    Interior Floor,
    L2_Zone_30,
    ,
    Adiabatic,
    ,
    NoSun,
    NoWind,
    ,
    4,
    21.0818,
    10.9728,
    7.0000,
    21.0818,
    8.6720,
    7.0000,
    20.9808,
    8.6720,
    7.0000,
    20.9808,
    10.9728,
    7.0000;
BuildingSurface:Detailed,
    L2_Zone_30_Floor_9,
    Floor,
    Interior Floor,
    L2_Zone_30,
    ,
    Adiabatic,
    ,
    NoSun,
    NoWind,
    ,
    4,
    27.9985,
    10.9800,
    7.0000,
    27.9985,
    8.6720,
    7.0000,
    27.9808,
    8.6720,
    7.0000,
    27.9808,
    10.9800,
    7.0000;
BuildingSurface:Detailed,
    L2_Zone_30_Ceiling_1,
    Ceiling,
    Interior Ceiling,
    L2_Zone_30,
    ,
    Surface,
    L3_Zone_47_Floor_1,
    NoSun,
    NoWind,
    ,
    4,
    7.5068,
    8.6720,
    12.8500,
    7.5068,
    5.0738,
    12.8500,
    13.9034,
    5.0738,
    12.8500,
    13.9034,
    8.6720,
    12.8500;
BuildingSurface:Detailed,
    L2_Zone_30_Ceiling_2,
    Ceiling,
    Interior Ceiling,
    L2_Zone_30,
    ,
    Surface,
    L3_Zone_47_Floor_2,
    NoSun,
    NoWind,
    ,
    4,
    7.5068,
    10.5710,
    12.8500,
    7.5068,
    8.6720,
    12.8500,
    27.9985,
    8.6720,
    12.8500,
    27.9985,
    10.5710,
    12.8500;
BuildingSurface:Detailed,
    L2_Zone_30_Ceiling_3,
    Ceiling,
    Interior Ceiling,
    L2_Zone_30,
    ,
    Surface,
    L3_Zone_47_Floor_3,
    NoSun,
    NoWind,
    ,
    4,
    11.5044,
    10.5800,
    12.8500,
    11.5044,
    10.5710,
    12.8500,
    27.9985,
    10.5710,
    12.8500,
    27.9985,
    10.5800,
    12.8500;
BuildingSurface:Detailed,
    L2_Zone_30_Ceiling_4,
    Ceiling,
    Interior Ceiling,
    L2_Zone_30,
    ,
    Surface,
    L3_Zone_47_Floor_4,
    NoSun,
    NoWind,
    ,
    4,
    11.5137,
    10.9710,
    12.8500,
    11.5137,
    10.5800,
    12.8500,
    27.9985,
    10.5800,
    12.8500,
    27.9985,
    10.9710,
    12.8500;
BuildingSurface:Detailed,
    L2_Zone_30_Roof_1,
    Roof,
    Interior Ceiling,
    L2_Zone_30,
    ,
    Adiabatic,
    ,
    NoSun,
    NoWind,
    ,
    4,
    7.5068,
    10.5800,
    12.8500,
    7.5068,
    10.5710,
    12.8500,
    11.5044,
    10.5710,
    12.8500,
    11.5044,
    10.5800,
    12.8500;
BuildingSurface:Detailed,
    L2_Zone_30_Roof_2,
    Roof,
    Interior Ceiling,
    L2_Zone_30,
    ,
    Adiabatic,
    ,
    NoSun,
    NoWind,
    ,
    4,
    11.5137,
    10.9800,
    12.8500,
    11.5137,
    10.9710,
    12.8500,
    27.9985,
    10.9710,
    12.8500,
    27.9985,
    10.9800,
    12.8500;
BuildingSurface:Detailed,
    L2_Zone_30_Wall_1,
    Wall,
    Interior Wall,
    L2_Zone_30,
    ,
    Surface,
    L2_Zone_29_Wall_1,
    NoSun,
    NoWind,
    ,
    4,
    7.5068,
    5.0738,
    12.8500,
    7.5068,
    5.0738,
    7.0000,
    13.9034,
    5.0738,
    7.0000,
    13.9034,
    5.0738,
    12.8500;
BuildingSurface:Detailed,
    L2_Zone_30_Wall_2,
    Wall,
    Interior Wall,
    L2_Zone_30,
    ,
    Surface,
    L2_Zone_42_Wall_6,
    NoSun,
    NoWind,
    ,
    4,
    13.9034,
    5.0738,
    12.8500,
    13.9034,
    5.0738,
    7.0000,
    13.9034,
    8.5710,
    7.0000,
    13.9034,
    8.5710,
    12.8500;
BuildingSurface:Detailed,
    L2_Zone_30_Wall_3,
    Wall,
    Interior Wall,
    L2_Zone_30,
    ,
    Adiabatic,
    ,
    NoSun,
    NoWind,
    ,
    4,
    13.9034,
    8.5710,
    12.8500,
    13.9034,
    8.5710,
    7.0000,
    13.9034,
    8.6720,
    7.0000,
    13.9034,
    8.6720,
    12.8500;
BuildingSurface:Detailed,
    L2_Zone_30_Wall_4,
    Wall,
    Interior Wall,
    L2_Zone_30,
    ,
    Adiabatic,
    ,
    NoSun,
    NoWind,
    ,
    4,
    13.9034,
    8.6720,
    12.8500,
    13.9034,
    8.6720,
    7.0000,
    14.0044,
    8.6720,
    7.0000,
    14.0044,
    8.6720,
    12.8500;
BuildingSurface:Detailed,
    L2_Zone_30_Wall_5,
    Wall,
    Interior Wall,
    L2_Zone_30,
    ,
    Surface,
    L2_Zone_42_Wall_5,
    NoSun,
    NoWind,
    ,
    4,
    14.0044,
    8.6720,
    12.8500,
    14.0044,
    8.6720,
    7.0000,
    21.0058,
    8.6720,
    7.0000,
    21.0058,
    8.6720,
    12.8500;
BuildingSurface:Detailed,
    L2_Zone_30_Wall_6,
    Wall,
    Interior Wall,
    L2_Zone_30,
    ,
    Adiabatic,
    ,
    NoSun,
    NoWind,
    ,
    4,
    21.0058,
    8.6720,
    12.8500,
    21.0058,
    8.6720,
    7.0000,
    21.0563,
    8.6720,
    7.0000,
    21.0563,
    8.6720,
    12.8500;
BuildingSurface:Detailed,
    L2_Zone_30_Wall_7,
    Wall,
    Interior Wall,
    L2_Zone_30,
    ,
    Adiabatic,
    ,
    NoSun,
    NoWind,
    ,
    4,
    21.0563,
    8.6720,
    12.8500,
    21.0563,
    8.6720,
    7.0000,
    21.1068,
    8.6720,
    7.0000,
    21.1068,
    8.6720,
    12.8500;
BuildingSurface:Detailed,
    L2_Zone_30_Wall_8,
    Wall,
    Interior Wall,
    L2_Zone_30,
    ,
    Surface,
    L2_Zone_26_Wall_3,
    NoSun,
    NoWind,
    ,
    4,
    21.1068,
    8.6720,
    12.8500,
    21.1068,
    8.6720,
    7.0000,
    27.9985,
    8.6720,
    7.0000,
    27.9985,
    8.6720,
    12.8500;
BuildingSurface:Detailed,
    L2_Zone_30_Wall_9,
    Wall,
    Interior Wall,
    L2_Zone_30,
    ,
    Surface,
    L2_Zone_40_Wall_10,
    NoSun,
    NoWind,
    ,
    4,
    27.9985,
    8.6720,
    12.8500,
    27.9985,
    8.6720,
    7.0000,
    27.9985,
    10.9800,
    7.0000,
    27.9985,
    10.9800,
    12.8500;
BuildingSurface:Detailed,
    L2_Zone_30_Wall_10,
    Wall,
    Interior Wall,
    L2_Zone_30,
    ,
    Adiabatic,
    ,
    NoSun,
    NoWind,
    ,
    4,
    21.1142,
    10.9800,
    12.8500,
    21.1142,
    10.9800,
    7.0000,
    21.0637,
    10.9800,
    7.0000,
    21.0637,
    10.9800,
    12.8500;
BuildingSurface:Detailed,
    L2_Zone_30_Wall_11,
    Wall,
    Interior Wall,
    L2_Zone_30,
    ,
    Surface,
    L2_Zone_36_Wall_1,
    NoSun,
    NoWind,
    ,
    4,
    27.9985,
    10.9800,
    12.8500,
    27.9985,
    10.9800,
    7.0000,
    21.1142,
    10.9800,
    7.0000,
    21.1142,
    10.9800,
    12.8500;
BuildingSurface:Detailed,
    L2_Zone_30_Wall_12,
    Wall,
    Interior Wall,
    L2_Zone_30,
    ,
    Adiabatic,
    ,
    NoSun,
    NoWind,
    ,
    4,
    17.8637,
    10.9800,
    12.8500,
    17.8637,
    10.9800,
    7.0000,
    17.8132,
    10.9800,
    7.0000,
    17.8132,
    10.9800,
    12.8500;
BuildingSurface:Detailed,
    L2_Zone_30_Wall_13,
    Wall,
    Interior Wall,
    L2_Zone_30,
    ,
    Surface,
    L2_Zone_35_Wall_1,
    NoSun,
    NoWind,
    ,
    4,
    21.0132,
    10.9800,
    12.8500,
    21.0132,
    10.9800,
    7.0000,
    17.8637,
    10.9800,
    7.0000,
    17.8637,
    10.9800,
    12.8500;
BuildingSurface:Detailed,
    L2_Zone_30_Wall_14,
    Wall,
    Interior Wall,
    L2_Zone_30,
    ,
    Adiabatic,
    ,
    NoSun,
    NoWind,
    ,
    4,
    21.0637,
    10.9800,
    12.8500,
    21.0637,
    10.9800,
    7.0000,
    21.0132,
    10.9800,
    7.0000,
    21.0132,
    10.9800,
    12.8500;
BuildingSurface:Detailed,
    L2_Zone_30_Wall_15,
    Wall,
    Interior Wall,
    L2_Zone_30,
    ,
    Adiabatic,
    ,
    NoSun,
    NoWind,
    ,
    4,
    14.6137,
    10.9800,
    12.8500,
    14.6137,
    10.9800,
    7.0000,
    14.5632,
    10.9800,
    7.0000,
    14.5632,
    10.9800,
    12.8500;
BuildingSurface:Detailed,
    L2_Zone_30_Wall_16,
    Wall,
    Interior Wall,
    L2_Zone_30,
    ,
    Surface,
    L2_Zone_34_Wall_1,
    NoSun,
    NoWind,
    ,
    4,
    17.7627,
    10.9800,
    12.8500,
    17.7627,
    10.9800,
    7.0000,
    14.6137,
    10.9800,
    7.0000,
    14.6137,
    10.9800,
    12.8500;
BuildingSurface:Detailed,
    L2_Zone_30_Wall_17,
    Wall,
    Interior Wall,
    L2_Zone_30,
    ,
    Adiabatic,
    ,
    NoSun,
    NoWind,
    ,
    4,
    17.8132,
    10.9800,
    12.8500,
    17.8132,
    10.9800,
    7.0000,
    17.7627,
    10.9800,
    7.0000,
    17.7627,
    10.9800,
    12.8500;
BuildingSurface:Detailed,
    L2_Zone_30_Wall_18,
    Wall,
    Interior Wall,
    L2_Zone_30,
    ,
    Surface,
    L2_Zone_32_Wall_2,
    NoSun,
    NoWind,
    ,
    4,
    14.5127,
    10.9800,
    12.8500,
    14.5127,
    10.9800,
    7.0000,
    11.5137,
    10.9800,
    7.0000,
    11.5137,
    10.9800,
    12.8500;
BuildingSurface:Detailed,
    L2_Zone_30_Wall_19,
    Wall,
    Interior Wall,
    L2_Zone_30,
    ,
    Adiabatic,
    ,
    NoSun,
    NoWind,
    ,
    4,
    14.5632,
    10.9800,
    12.8500,
    14.5632,
    10.9800,
    7.0000,
    14.5127,
    10.9800,
    7.0000,
    14.5127,
    10.9800,
    12.8500;
BuildingSurface:Detailed,
    L2_Zone_30_Wall_20,
    Wall,
    Interior Wall,
    L2_Zone_30,
    ,
    Adiabatic,
    ,
    NoSun,
    NoWind,
    ,
    4,
    11.5137,
    10.6810,
    12.8500,
    11.5137,
    10.6810,
    7.0000,
    11.5137,
    10.5800,
    7.0000,
    11.5137,
    10.5800,
    12.8500;
BuildingSurface:Detailed,
    L2_Zone_30_Wall_21,
    Wall,
    Interior Wall,
    L2_Zone_30,
    ,
    Surface,
    L2_Zone_31_Wall_4,
    NoSun,
    NoWind,
    ,
    4,
    11.5137,
    10.9800,
    12.8500,
    11.5137,
    10.9800,
    7.0000,
    11.5137,
    10.6810,
    7.0000,
    11.5137,
    10.6810,
    12.8500;
BuildingSurface:Detailed,
    L2_Zone_30_Wall_22,
    Wall,
    Interior Wall,
    L2_Zone_30,
    ,
    Surface,
    L2_Zone_31_Wall_3,
    NoSun,
    NoWind,
    ,
    4,
    11.4127,
    10.5800,
    12.8500,
    11.4127,
    10.5800,
    7.0000,
    7.5068,
    10.5800,
    7.0000,
    7.5068,
    10.5800,
    12.8500;
BuildingSurface:Detailed,
    L2_Zone_30_Wall_23,
    Wall,
    Interior Wall,
    L2_Zone_30,
    ,
    Adiabatic,
    ,
    NoSun,
    NoWind,
    ,
    4,
    11.5137,
    10.5800,
    12.8500,
    11.5137,
    10.5800,
    7.0000,
    11.4127,
    10.5800,
    7.0000,
    11.4127,
    10.5800,
    12.8500;
BuildingSurface:Detailed,
    L2_Zone_30_Wall_24,
    Wall,
    Interior Wall,
    L2_Zone_30,
    ,
    Surface,
    L2_Zone_27_Wall_5,
    NoSun,
    NoWind,
    ,
    4,
    7.5068,
    10.5800,
    12.8500,
    7.5068,
    10.5800,
    7.0000,
    7.5068,
    5.0738,
    7.0000,
    7.5068,
    5.0738,
    12.8500;
BuildingSurface:Detailed,
    L2_Zone_31_Floor_1,
    Floor,
    Interior Floor,
    L2_Zone_31,
    ,
    Surface,
    L1_Zone_13_Ceiling_1,
    NoSun,
    NoWind,
    ,
    4,
    11.4058,
    14.5728,
    7.0000,
    11.4058,
    10.6810,
    7.0000,
    7.5068,
    10.6810,
    7.0000,
    7.5068,
    14.5728,
    7.0000;
BuildingSurface:Detailed,
    L2_Zone_31_Floor_2,
    Floor,
    Interior Floor,
    L2_Zone_31,
    ,
    Adiabatic,
    ,
    NoSun,
    NoWind,
    ,
    4,
    11.4127,
    14.5728,
    7.0000,
    11.4127,
    10.6810,
    7.0000,
    11.4058,
    10.6810,
    7.0000,
    11.4058,
    14.5728,
    7.0000;
BuildingSurface:Detailed,
    L2_Zone_31_Ceiling_1,
    Ceiling,
    Interior Ceiling,
    L2_Zone_31,
    ,
    Surface,
    L3_Zone_45_Floor_1,
    NoSun,
    NoWind,
    ,
    4,
    7.5068,
    14.5728,
    12.8500,
    7.5068,
    10.6810,
    12.8500,
    11.4034,
    10.6810,
    12.8500,
    11.4034,
    14.5728,
    12.8500;
BuildingSurface:Detailed,
    L2_Zone_31_Roof_1,
    Roof,
    Interior Ceiling,
    L2_Zone_31,
    ,
    Adiabatic,
    ,
    NoSun,
    NoWind,
    ,
    4,
    11.4034,
    14.5728,
    12.8500,
    11.4034,
    10.6810,
    12.8500,
    11.4127,
    10.6810,
    12.8500,
    11.4127,
    14.5728,
    12.8500;
BuildingSurface:Detailed,
    L2_Zone_31_Wall_1,
    Wall,
    Interior Wall,
    L2_Zone_31,
    ,
    Surface,
    L2_Zone_27_Wall_8,
    NoSun,
    NoWind,
    ,
    4,
    7.5068,
    13.0800,
    12.8500,
    7.5068,
    13.0800,
    7.0000,
    7.5068,
    10.6810,
    7.0000,
    7.5068,
    10.6810,
    12.8500;
BuildingSurface:Detailed,
    L2_Zone_31_Wall_2,
    Wall,
    Interior Wall,
    L2_Zone_31,
    ,
    Adiabatic,
    ,
    NoSun,
    NoWind,
    ,
    4,
    7.5068,
    14.5728,
    12.8500,
    7.5068,
    14.5728,
    7.0000,
    7.5068,
    13.0800,
    7.0000,
    7.5068,
    13.0800,
    12.8500;
BuildingSurface:Detailed,
    L2_Zone_31_Wall_3,
    Wall,
    Interior Wall,
    L2_Zone_31,
    ,
    Surface,
    L2_Zone_30_Wall_22,
    NoSun,
    NoWind,
    ,
    4,
    7.5068,
    10.6810,
    12.8500,
    7.5068,
    10.6810,
    7.0000,
    11.4127,
    10.6810,
    7.0000,
    11.4127,
    10.6810,
    12.8500;
BuildingSurface:Detailed,
    L2_Zone_31_Wall_4,
    Wall,
    Interior Wall,
    L2_Zone_31,
    ,
    Surface,
    L2_Zone_30_Wall_21,
    NoSun,
    NoWind,
    ,
    4,
    11.4127,
    10.6810,
    12.8500,
    11.4127,
    10.6810,
    7.0000,
    11.4127,
    10.9800,
    7.0000,
    11.4127,
    10.9800,
    12.8500;
BuildingSurface:Detailed,
    L2_Zone_31_Wall_5,
    Wall,
    Interior Wall,
    L2_Zone_31,
    ,
    Adiabatic,
    ,
    NoSun,
    NoWind,
    ,
    4,
    11.4127,
    10.9800,
    12.8500,
    11.4127,
    10.9800,
    7.0000,
    11.4127,
    11.0810,
    7.0000,
    11.4127,
    11.0810,
    12.8500;
BuildingSurface:Detailed,
    L2_Zone_31_Wall_6,
    Wall,
    Interior Wall,
    L2_Zone_31,
    ,
    Surface,
    L2_Zone_32_Wall_1,
    NoSun,
    NoWind,
    ,
    4,
    11.4127,
    11.0810,
    12.8500,
    11.4127,
    11.0810,
    7.0000,
    11.4127,
    14.5728,
    7.0000,
    11.4127,
    14.5728,
    12.8500;
BuildingSurface:Detailed,
    L2_Zone_31_Wall_7,
    Wall,
    Exterior Wall,
    L2_Zone_31,
    ,
    Outdoors,
    ,
    SunExposed,
    WindExposed,
    ,
    4,
    11.4127,
    14.5728,
    12.8500,
    11.4127,
    14.5728,
    7.0000,
    7.5068,
    14.5728,
    7.0000,
    7.5068,
    14.5728,
    12.8500;
BuildingSurface:Detailed,
    L2_Zone_32_Floor_1,
    Floor,
    Interior Floor,
    L2_Zone_32,
    ,
    Surface,
    L1_Zone_14_Ceiling_1,
    NoSun,
    NoWind,
    ,
    4,
    14.4808,
    14.5728,
    7.0000,
    14.4808,
    11.0810,
    7.0000,
    11.5137,
    11.0810,
    7.0000,
    11.5137,
    14.5728,
    7.0000;
BuildingSurface:Detailed,
    L2_Zone_32_Floor_2,
    Floor,
    Interior Floor,
    L2_Zone_32,
    ,
    Adiabatic,
    ,
    NoSun,
    NoWind,
    ,
    4,
    14.5127,
    14.5728,
    7.0000,
    14.5127,
    11.0810,
    7.0000,
    14.4808,
    11.0810,
    7.0000,
    14.4808,
    14.5728,
    7.0000;
BuildingSurface:Detailed,
    L2_Zone_32_Ceiling_1,
    Ceiling,
    Interior Ceiling,
    L2_Zone_32,
    ,
    Surface,
    L3_Zone_46_Floor_1,
    NoSun,
    NoWind,
    ,
    4,
    11.5137,
    14.5728,
    12.8500,
    11.5137,
    11.0810,
    12.8500,
    13.9034,
    11.0810,
    12.8500,
    13.9034,
    14.5728,
    12.8500;
BuildingSurface:Detailed,
    L2_Zone_32_Ceiling_2,
    Ceiling,
    Interior Ceiling,
    L2_Zone_32,
    ,
    Surface,
    L3_Zone_49_Floor_1,
    NoSun,
    NoWind,
    ,
    4,
    14.0044,
    14.5728,
    12.8500,
    14.0044,
    11.0810,
    12.8500,
    14.5127,
    11.0810,
    12.8500,
    14.5127,
    14.5728,
    12.8500;
BuildingSurface:Detailed,
    L2_Zone_32_Roof_1,
    Roof,
    Interior Ceiling,
    L2_Zone_32,
    ,
    Adiabatic,
    ,
    NoSun,
    NoWind,
    ,
    4,
    13.9034,
    14.5728,
    12.8500,
    13.9034,
    11.0810,
    12.8500,
    14.0044,
    11.0810,
    12.8500,
    14.0044,
    14.5728,
    12.8500;
BuildingSurface:Detailed,
    L2_Zone_32_Wall_1,
    Wall,
    Interior Wall,
    L2_Zone_32,
    ,
    Surface,
    L2_Zone_31_Wall_6,
    NoSun,
    NoWind,
    ,
    4,
    11.5137,
    14.5728,
    12.8500,
    11.5137,
    14.5728,
    7.0000,
    11.5137,
    11.0810,
    7.0000,
    11.5137,
    11.0810,
    12.8500;
BuildingSurface:Detailed,
    L2_Zone_32_Wall_2,
    Wall,
    Interior Wall,
    L2_Zone_32,
    ,
    Surface,
    L2_Zone_30_Wall_18,
    NoSun,
    NoWind,
    ,
    4,
    11.5137,
    11.0810,
    12.8500,
    11.5137,
    11.0810,
    7.0000,
    14.5127,
    11.0810,
    7.0000,
    14.5127,
    11.0810,
    12.8500;
BuildingSurface:Detailed,
    L2_Zone_32_Wall_3,
    Wall,
    Interior Wall,
    L2_Zone_32,
    ,
    Surface,
    L2_Zone_34_Wall_4,
    NoSun,
    NoWind,
    ,
    4,
    14.5127,
    11.0810,
    12.8500,
    14.5127,
    11.0810,
    7.0000,
    14.5127,
    14.5728,
    7.0000,
    14.5127,
    14.5728,
    12.8500;
BuildingSurface:Detailed,
    L2_Zone_32_Wall_4,
    Wall,
    Exterior Wall,
    L2_Zone_32,
    ,
    Outdoors,
    ,
    SunExposed,
    WindExposed,
    ,
    4,
    14.5127,
    14.5728,
    12.8500,
    14.5127,
    14.5728,
    7.0000,
    11.5137,
    14.5728,
    7.0000,
    11.5137,
    14.5728,
    12.8500;
BuildingSurface:Detailed,
    L2_Zone_34_Floor_1,
    Floor,
    Interior Floor,
    L2_Zone_34,
    ,
    Surface,
    L1_Zone_15_Ceiling_1,
    NoSun,
    NoWind,
    ,
    4,
    17.7308,
    14.5728,
    7.0000,
    17.7308,
    11.0810,
    7.0000,
    14.6137,
    11.0810,
    7.0000,
    14.6137,
    14.5728,
    7.0000;
BuildingSurface:Detailed,
    L2_Zone_34_Floor_2,
    Floor,
    Interior Floor,
    L2_Zone_34,
    ,
    Adiabatic,
    ,
    NoSun,
    NoWind,
    ,
    4,
    17.7627,
    14.5728,
    7.0000,
    17.7627,
    11.0810,
    7.0000,
    17.7308,
    11.0810,
    7.0000,
    17.7308,
    14.5728,
    7.0000;
BuildingSurface:Detailed,
    L2_Zone_34_Ceiling_1,
    Ceiling,
    Interior Ceiling,
    L2_Zone_34,
    ,
    Surface,
    L3_Zone_49_Floor_2,
    NoSun,
    NoWind,
    ,
    4,
    14.6137,
    14.5728,
    12.8500,
    14.6137,
    11.0810,
    12.8500,
    17.4534,
    11.0810,
    12.8500,
    17.4534,
    14.5728,
    12.8500;
BuildingSurface:Detailed,
    L2_Zone_34_Ceiling_2,
    Ceiling,
    Interior Ceiling,
    L2_Zone_34,
    ,
    Surface,
    L3_Zone_51_Floor_1,
    NoSun,
    NoWind,
    ,
    4,
    17.5544,
    14.5728,
    12.8500,
    17.5544,
    11.0810,
    12.8500,
    17.7627,
    11.0810,
    12.8500,
    17.7627,
    14.5728,
    12.8500;
BuildingSurface:Detailed,
    L2_Zone_34_Roof_1,
    Roof,
    Interior Ceiling,
    L2_Zone_34,
    ,
    Adiabatic,
    ,
    NoSun,
    NoWind,
    ,
    4,
    17.4534,
    14.5728,
    12.8500,
    17.4534,
    11.0810,
    12.8500,
    17.5544,
    11.0810,
    12.8500,
    17.5544,
    14.5728,
    12.8500;
BuildingSurface:Detailed,
    L2_Zone_34_Wall_1,
    Wall,
    Interior Wall,
    L2_Zone_34,
    ,
    Surface,
    L2_Zone_30_Wall_16,
    NoSun,
    NoWind,
    ,
    4,
    14.6137,
    11.0810,
    12.8500,
    14.6137,
    11.0810,
    7.0000,
    17.7627,
    11.0810,
    7.0000,
    17.7627,
    11.0810,
    12.8500;
BuildingSurface:Detailed,
    L2_Zone_34_Wall_2,
    Wall,
    Interior Wall,
    L2_Zone_34,
    ,
    Surface,
    L2_Zone_35_Wall_4,
    NoSun,
    NoWind,
    ,
    4,
    17.7627,
    11.0810,
    12.8500,
    17.7627,
    11.0810,
    7.0000,
    17.7627,
    14.5728,
    7.0000,
    17.7627,
    14.5728,
    12.8500;
BuildingSurface:Detailed,
    L2_Zone_34_Wall_3,
    Wall,
    Exterior Wall,
    L2_Zone_34,
    ,
    Outdoors,
    ,
    SunExposed,
    WindExposed,
    ,
    4,
    17.7627,
    14.5728,
    12.8500,
    17.7627,
    14.5728,
    7.0000,
    14.6137,
    14.5728,
    7.0000,
    14.6137,
    14.5728,
    12.8500;
BuildingSurface:Detailed,
    L2_Zone_34_Wall_4,
    Wall,
    Interior Wall,
    L2_Zone_34,
    ,
    Surface,
    L2_Zone_32_Wall_3,
    NoSun,
    NoWind,
    ,
    4,
    14.6137,
    14.5728,
    12.8500,
    14.6137,
    14.5728,
    7.0000,
    14.6137,
    11.0810,
    7.0000,
    14.6137,
    11.0810,
    12.8500;
BuildingSurface:Detailed,
    L2_Zone_35_Floor_1,
    Floor,
    Interior Floor,
    L2_Zone_35,
    ,
    Surface,
    L1_Zone_16_Ceiling_1,
    NoSun,
    NoWind,
    ,
    4,
    20.9808,
    14.5728,
    7.0000,
    20.9808,
    11.0810,
    7.0000,
    17.8637,
    11.0810,
    7.0000,
    17.8637,
    14.5728,
    7.0000;
BuildingSurface:Detailed,
    L2_Zone_35_Floor_2,
    Floor,
    Interior Floor,
    L2_Zone_35,
    ,
    Adiabatic,
    ,
    NoSun,
    NoWind,
    ,
    4,
    21.0132,
    14.5728,
    7.0000,
    21.0132,
    11.0810,
    7.0000,
    20.9808,
    11.0810,
    7.0000,
    20.9808,
    14.5728,
    7.0000;
BuildingSurface:Detailed,
    L2_Zone_35_Ceiling_1,
    Ceiling,
    Interior Ceiling,
    L2_Zone_35,
    ,
    Surface,
    L3_Zone_51_Floor_2,
    NoSun,
    NoWind,
    ,
    4,
    17.8637,
    14.5728,
    12.8500,
    17.8637,
    11.0810,
    12.8500,
    19.3534,
    11.0810,
    12.8500,
    19.3534,
    14.5728,
    12.8500;
BuildingSurface:Detailed,
    L2_Zone_35_Ceiling_2,
    Ceiling,
    Interior Ceiling,
    L2_Zone_35,
    ,
    Surface,
    L3_Zone_52_Floor_1,
    NoSun,
    NoWind,
    ,
    4,
    19.4544,
    14.5728,
    12.8500,
    19.4544,
    11.0810,
    12.8500,
    21.0132,
    11.0810,
    12.8500,
    21.0132,
    14.5728,
    12.8500;
BuildingSurface:Detailed,
    L2_Zone_35_Roof_1,
    Roof,
    Interior Ceiling,
    L2_Zone_35,
    ,
    Adiabatic,
    ,
    NoSun,
    NoWind,
    ,
    4,
    19.3534,
    14.5728,
    12.8500,
    19.3534,
    11.0810,
    12.8500,
    19.4544,
    11.0810,
    12.8500,
    19.4544,
    14.5728,
    12.8500;
BuildingSurface:Detailed,
    L2_Zone_35_Wall_1,
    Wall,
    Interior Wall,
    L2_Zone_35,
    ,
    Surface,
    L2_Zone_30_Wall_13,
    NoSun,
    NoWind,
    ,
    4,
    17.8637,
    11.0810,
    12.8500,
    17.8637,
    11.0810,
    7.0000,
    21.0132,
    11.0810,
    7.0000,
    21.0132,
    11.0810,
    12.8500;
BuildingSurface:Detailed,
    L2_Zone_35_Wall_2,
    Wall,
    Interior Wall,
    L2_Zone_35,
    ,
    Surface,
    L2_Zone_36_Wall_6,
    NoSun,
    NoWind,
    ,
    4,
    21.0132,
    11.0810,
    12.8500,
    21.0132,
    11.0810,
    7.0000,
    21.0132,
    14.5728,
    7.0000,
    21.0132,
    14.5728,
    12.8500;
BuildingSurface:Detailed,
    L2_Zone_35_Wall_3,
    Wall,
    Exterior Wall,
    L2_Zone_35,
    ,
    Outdoors,
    ,
    SunExposed,
    WindExposed,
    ,
    4,
    21.0132,
    14.5728,
    12.8500,
    21.0132,
    14.5728,
    7.0000,
    17.8637,
    14.5728,
    7.0000,
    17.8637,
    14.5728,
    12.8500;
BuildingSurface:Detailed,
    L2_Zone_35_Wall_4,
    Wall,
    Interior Wall,
    L2_Zone_35,
    ,
    Surface,
    L2_Zone_34_Wall_2,
    NoSun,
    NoWind,
    ,
    4,
    17.8637,
    14.5728,
    12.8500,
    17.8637,
    14.5728,
    7.0000,
    17.8637,
    11.0810,
    7.0000,
    17.8637,
    11.0810,
    12.8500;
BuildingSurface:Detailed,
    L2_Zone_36_Floor_1,
    Floor,
    Interior Floor,
    L2_Zone_36,
    ,
    Surface,
    L1_Zone_17_Ceiling_3,
    NoSun,
    NoWind,
    ,
    4,
    27.9808,
    14.5728,
    7.0000,
    27.9808,
    11.0810,
    7.0000,
    21.1142,
    11.0810,
    7.0000,
    21.1142,
    14.5728,
    7.0000;
BuildingSurface:Detailed,
    L2_Zone_36_Floor_2,
    Floor,
    Interior Floor,
    L2_Zone_36,
    ,
    Adiabatic,
    ,
    NoSun,
    NoWind,
    ,
    4,
    27.9985,
    14.5728,
    7.0000,
    27.9985,
    11.0810,
    7.0000,
    27.9808,
    11.0810,
    7.0000,
    27.9808,
    14.5728,
    7.0000;
BuildingSurface:Detailed,
    L2_Zone_36_Ceiling_1,
    Ceiling,
    Interior Ceiling,
    L2_Zone_36,
    ,
    Surface,
    L3_Zone_53_Floor_1,
    NoSun,
    NoWind,
    ,
    4,
    21.1394,
    14.5728,
    12.8500,
    21.1394,
    11.0810,
    12.8500,
    27.9985,
    11.0810,
    12.8500,
    27.9985,
    14.5728,
    12.8500;
BuildingSurface:Detailed,
    L2_Zone_36_Roof_1,
    Roof,
    Interior Ceiling,
    L2_Zone_36,
    ,
    Adiabatic,
    ,
    NoSun,
    NoWind,
    ,
    4,
    21.1142,
    14.5728,
    12.8500,
    21.1142,
    11.0810,
    12.8500,
    21.1394,
    11.0810,
    12.8500,
    21.1394,
    14.5728,
    12.8500;
BuildingSurface:Detailed,
    L2_Zone_36_Wall_1,
    Wall,
    Interior Wall,
    L2_Zone_36,
    ,
    Surface,
    L2_Zone_30_Wall_11,
    NoSun,
    NoWind,
    ,
    4,
    21.1142,
    11.0810,
    12.8500,
    21.1142,
    11.0810,
    7.0000,
    27.9985,
    11.0810,
    7.0000,
    27.9985,
    11.0810,
    12.8500;
BuildingSurface:Detailed,
    L2_Zone_36_Wall_2,
    Wall,
    Interior Wall,
    L2_Zone_36,
    ,
    Surface,
    L2_Zone_40_Wall_12,
    NoSun,
    NoWind,
    ,
    4,
    27.9985,
    11.0810,
    12.8500,
    27.9985,
    11.0810,
    7.0000,
    27.9985,
    12.4649,
    7.0000,
    27.9985,
    12.4649,
    12.8500;
BuildingSurface:Detailed,
    L2_Zone_36_Wall_3,
    Wall,
    Interior Wall,
    L2_Zone_36,
    ,
    Adiabatic,
    ,
    NoSun,
    NoWind,
    ,
    4,
    27.9985,
    12.4649,
    12.8500,
    27.9985,
    12.4649,
    7.0000,
    27.9985,
    12.5659,
    7.0000,
    27.9985,
    12.5659,
    12.8500;
BuildingSurface:Detailed,
    L2_Zone_36_Wall_4,
    Wall,
    Interior Wall,
    L2_Zone_36,
    ,
    Surface,
    L2_Zone_37_Wall_1,
    NoSun,
    NoWind,
    ,
    4,
    27.9985,
    12.5659,
    12.8500,
    27.9985,
    12.5659,
    7.0000,
    27.9985,
    14.5728,
    7.0000,
    27.9985,
    14.5728,
    12.8500;
BuildingSurface:Detailed,
    L2_Zone_36_Wall_5,
    Wall,
    Exterior Wall,
    L2_Zone_36,
    ,
    Outdoors,
    ,
    SunExposed,
    WindExposed,
    ,
    4,
    27.9985,
    14.5728,
    12.8500,
    27.9985,
    14.5728,
    7.0000,
    21.1142,
    14.5728,
    7.0000,
    21.1142,
    14.5728,
    12.8500;
BuildingSurface:Detailed,
    L2_Zone_36_Wall_6,
    Wall,
    Interior Wall,
    L2_Zone_36,
    ,
    Surface,
    L2_Zone_35_Wall_2,
    NoSun,
    NoWind,
    ,
    4,
    21.1142,
    14.5728,
    12.8500,
    21.1142,
    14.5728,
    7.0000,
    21.1142,
    11.0810,
    7.0000,
    21.1142,
    11.0810,
    12.8500;
BuildingSurface:Detailed,
    L2_Zone_37_Floor_1,
    Floor,
    Interior Floor,
    L2_Zone_37,
    ,
    Surface,
    L1_Zone_18_Ceiling_2,
    NoSun,
    NoWind,
    ,
    4,
    30.8035,
    14.5728,
    7.0000,
    30.8035,
    12.5659,
    7.0000,
    28.0995,
    12.5659,
    7.0000,
    28.0995,
    14.5728,
    7.0000;
BuildingSurface:Detailed,
    L2_Zone_37_Ceiling_1,
    Ceiling,
    Interior Ceiling,
    L2_Zone_37,
    ,
    Surface,
    L3_Zone_57_Floor_2,
    NoSun,
    NoWind,
    ,
    4,
    28.1044,
    14.5728,
    12.8500,
    28.1044,
    12.5659,
    12.8500,
    30.8035,
    12.5659,
    12.8500,
    30.8035,
    14.5728,
    12.8500;
BuildingSurface:Detailed,
    L2_Zone_37_Roof_1,
    Roof,
    Interior Ceiling,
    L2_Zone_37,
    ,
    Adiabatic,
    ,
    NoSun,
    NoWind,
    ,
    4,
    28.0995,
    14.5728,
    12.8500,
    28.0995,
    12.5659,
    12.8500,
    28.1044,
    12.5659,
    12.8500,
    28.1044,
    14.5728,
    12.8500;
BuildingSurface:Detailed,
    L2_Zone_37_Wall_1,
    Wall,
    Interior Wall,
    L2_Zone_37,
    ,
    Surface,
    L2_Zone_36_Wall_4,
    NoSun,
    NoWind,
    ,
    4,
    28.0995,
    14.5728,
    12.8500,
    28.0995,
    14.5728,
    7.0000,
    28.0995,
    12.5659,
    7.0000,
    28.0995,
    12.5659,
    12.8500;
BuildingSurface:Detailed,
    L2_Zone_37_Wall_2,
    Wall,
    Interior Wall,
    L2_Zone_37,
    ,
    Surface,
    L2_Zone_40_Wall_3,
    NoSun,
    NoWind,
    ,
    4,
    28.0995,
    12.5659,
    12.8500,
    28.0995,
    12.5659,
    7.0000,
    30.8035,
    12.5659,
    7.0000,
    30.8035,
    12.5659,
    12.8500;
BuildingSurface:Detailed,
    L2_Zone_37_Wall_3,
    Wall,
    Interior Wall,
    L2_Zone_37,
    ,
    Surface,
    L2_Zone_38_Wall_4,
    NoSun,
    NoWind,
    ,
    4,
    30.8035,
    12.5659,
    12.8500,
    30.8035,
    12.5659,
    7.0000,
    30.8035,
    14.5728,
    7.0000,
    30.8035,
    14.5728,
    12.8500;
BuildingSurface:Detailed,
    L2_Zone_37_Wall_4,
    Wall,
    Exterior Wall,
    L2_Zone_37,
    ,
    Outdoors,
    ,
    SunExposed,
    WindExposed,
    ,
    4,
    30.8035,
    14.5728,
    12.8500,
    30.8035,
    14.5728,
    7.0000,
    28.0995,
    14.5728,
    7.0000,
    28.0995,
    14.5728,
    12.8500;
BuildingSurface:Detailed,
    L2_Zone_38_Floor_1,
    Floor,
    Interior Floor,
    L2_Zone_38,
    ,
    Surface,
    L1_Zone_18_Ceiling_3,
    NoSun,
    NoWind,
    ,
    4,
    32.6035,
    14.5728,
    7.0000,
    32.6035,
    12.5659,
    7.0000,
    30.9045,
    12.5659,
    7.0000,
    30.9045,
    14.5728,
    7.0000;
BuildingSurface:Detailed,
    L2_Zone_38_Ceiling_1,
    Ceiling,
    Interior Ceiling,
    L2_Zone_38,
    ,
    Surface,
    L3_Zone_57_Floor_3,
    NoSun,
    NoWind,
    ,
    4,
    30.9045,
    14.5728,
    12.8500,
    30.9045,
    12.5659,
    12.8500,
    32.6035,
    12.5659,
    12.8500,
    32.6035,
    14.5728,
    12.8500;
BuildingSurface:Detailed,
    L2_Zone_38_Wall_1,
    Wall,
    Interior Wall,
    L2_Zone_38,
    ,
    Surface,
    L2_Zone_40_Wall_5,
    NoSun,
    NoWind,
    ,
    4,
    30.9045,
    12.5659,
    12.8500,
    30.9045,
    12.5659,
    7.0000,
    32.6035,
    12.5659,
    7.0000,
    32.6035,
    12.5659,
    12.8500;
BuildingSurface:Detailed,
    L2_Zone_38_Wall_2,
    Wall,
    Interior Wall,
    L2_Zone_38,
    ,
    Surface,
    L2_Zone_39_Wall_3,
    NoSun,
    NoWind,
    ,
    4,
    32.6035,
    12.5659,
    12.8500,
    32.6035,
    12.5659,
    7.0000,
    32.6035,
    14.5728,
    7.0000,
    32.6035,
    14.5728,
    12.8500;
BuildingSurface:Detailed,
    L2_Zone_38_Wall_3,
    Wall,
    Exterior Wall,
    L2_Zone_38,
    ,
    Outdoors,
    ,
    SunExposed,
    WindExposed,
    ,
    4,
    32.6035,
    14.5728,
    12.8500,
    32.6035,
    14.5728,
    7.0000,
    30.9045,
    14.5728,
    7.0000,
    30.9045,
    14.5728,
    12.8500;
BuildingSurface:Detailed,
    L2_Zone_38_Wall_4,
    Wall,
    Interior Wall,
    L2_Zone_38,
    ,
    Surface,
    L2_Zone_37_Wall_3,
    NoSun,
    NoWind,
    ,
    4,
    30.9045,
    14.5728,
    12.8500,
    30.9045,
    14.5728,
    7.0000,
    30.9045,
    12.5659,
    7.0000,
    30.9045,
    12.5659,
    12.8500;
BuildingSurface:Detailed,
    L2_Zone_39_Floor_1,
    Floor,
    Interior Floor,
    L2_Zone_39,
    ,
    Surface,
    L1_Zone_18_Ceiling_4,
    NoSun,
    NoWind,
    ,
    4,
    34.5058,
    14.5728,
    7.0000,
    34.5058,
    12.5659,
    7.0000,
    32.7045,
    12.5659,
    7.0000,
    32.7045,
    14.5728,
    7.0000;
BuildingSurface:Detailed,
    L2_Zone_39_Ceiling_1,
    Ceiling,
    Interior Ceiling,
    L2_Zone_39,
    ,
    Surface,
    L3_Zone_57_Floor_4,
    NoSun,
    NoWind,
    ,
    4,
    32.7045,
    14.5728,
    12.8500,
    32.7045,
    12.5659,
    12.8500,
    34.5058,
    12.5659,
    12.8500,
    34.5058,
    14.5728,
    12.8500;
BuildingSurface:Detailed,
    L2_Zone_39_Wall_1,
    Wall,
    Exterior Wall,
    L2_Zone_39,
    ,
    Outdoors,
    ,
    SunExposed,
    WindExposed,
    ,
    4,
    34.5058,
    12.5659,
    12.8500,
    34.5058,
    12.5659,
    7.0000,
    34.5058,
    14.5728,
    7.0000,
    34.5058,
    14.5728,
    12.8500;
BuildingSurface:Detailed,
    L2_Zone_39_Wall_2,
    Wall,
    Exterior Wall,
    L2_Zone_39,
    ,
    Outdoors,
    ,
    SunExposed,
    WindExposed,
    ,
    4,
    34.5058,
    14.5728,
    12.8500,
    34.5058,
    14.5728,
    7.0000,
    32.7045,
    14.5728,
    7.0000,
    32.7045,
    14.5728,
    12.8500;
BuildingSurface:Detailed,
    L2_Zone_39_Wall_3,
    Wall,
    Interior Wall,
    L2_Zone_39,
    ,
    Surface,
    L2_Zone_38_Wall_2,
    NoSun,
    NoWind,
    ,
    4,
    32.7045,
    14.5728,
    12.8500,
    32.7045,
    14.5728,
    7.0000,
    32.7045,
    12.5659,
    7.0000,
    32.7045,
    12.5659,
    12.8500;
BuildingSurface:Detailed,
    L2_Zone_39_Wall_4,
    Wall,
    Interior Wall,
    L2_Zone_39,
    ,
    Surface,
    L2_Zone_40_Wall_7,
    NoSun,
    NoWind,
    ,
    4,
    32.7045,
    12.5659,
    12.8500,
    32.7045,
    12.5659,
    7.0000,
    33.0035,
    12.5659,
    7.0000,
    33.0035,
    12.5659,
    12.8500;
BuildingSurface:Detailed,
    L2_Zone_39_Wall_5,
    Wall,
    Interior Wall,
    L2_Zone_39,
    ,
    Adiabatic,
    ,
    NoSun,
    NoWind,
    ,
    4,
    33.0035,
    12.5659,
    12.8500,
    33.0035,
    12.5659,
    7.0000,
    34.5058,
    12.5659,
    7.0000,
    34.5058,
    12.5659,
    12.8500;
BuildingSurface:Detailed,
    L2_Zone_40_Floor_1,
    Floor,
    Interior Floor,
    L2_Zone_40,
    ,
    Surface,
    L1_Zone_18_Ceiling_1,
    NoSun,
    NoWind,
    ,
    4,
    33.0035,
    12.4649,
    7.0000,
    33.0035,
    5.0738,
    7.0000,
    28.0995,
    5.0738,
    7.0000,
    28.0995,
    12.4649,
    7.0000;
BuildingSurface:Detailed,
    L2_Zone_40_Ceiling_1,
    Ceiling,
    Interior Ceiling,
    L2_Zone_40,
    ,
    Surface,
    L3_Zone_47_Floor_5,
    NoSun,
    NoWind,
    ,
    4,
    28.0995,
    10.9710,
    12.8500,
    28.0995,
    8.6720,
    12.8500,
    30.5034,
    8.6720,
    12.8500,
    30.5034,
    10.9710,
    12.8500;
BuildingSurface:Detailed,
    L2_Zone_40_Ceiling_2,
    Ceiling,
    Interior Ceiling,
    L2_Zone_40,
    ,
    Surface,
    L3_Zone_55_Floor_1,
    NoSun,
    NoWind,
    ,
    4,
    28.1044,
    8.5710,
    12.8500,
    28.1044,
    5.0738,
    12.8500,
    33.0035,
    5.0738,
    12.8500,
    33.0035,
    8.5710,
    12.8500;
BuildingSurface:Detailed,
    L2_Zone_40_Ceiling_3,
    Ceiling,
    Interior Ceiling,
    L2_Zone_40,
    ,
    Surface,
    L3_Zone_57_Floor_1,
    NoSun,
    NoWind,
    ,
    4,
    28.1044,
    12.4649,
    12.8500,
    28.1044,
    11.0720,
    12.8500,
    33.0035,
    11.0720,
    12.8500,
    33.0035,
    12.4649,
    12.8500;
BuildingSurface:Detailed,
    L2_Zone_40_Ceiling_4,
    Ceiling,
    Interior Ceiling,
    L2_Zone_40,
    ,
    Surface,
    L3_Zone_56_Floor_1,
    NoSun,
    NoWind,
    ,
    4,
    30.6044,
    10.9710,
    12.8500,
    30.6044,
    8.6720,
    12.8500,
    33.0035,
    8.6720,
    12.8500,
    33.0035,
    10.9710,
    12.8500;
BuildingSurface:Detailed,
    L2_Zone_40_Roof_1,
    Roof,
    Interior Ceiling,
    L2_Zone_40,
    ,
    Adiabatic,
    ,
    NoSun,
    NoWind,
    ,
    4,
    28.0995,
    8.5710,
    12.8500,
    28.0995,
    5.0738,
    12.8500,
    28.1044,
    5.0738,
    12.8500,
    28.1044,
    8.5710,
    12.8500;
BuildingSurface:Detailed,
    L2_Zone_40_Roof_2,
    Roof,
    Interior Ceiling,
    L2_Zone_40,
    ,
    Adiabatic,
    ,
    NoSun,
    NoWind,
    ,
    4,
    28.0995,
    12.4649,
    12.8500,
    28.0995,
    11.0720,
    12.8500,
    28.1044,
    11.0720,
    12.8500,
    28.1044,
    12.4649,
    12.8500;
BuildingSurface:Detailed,
    L2_Zone_40_Roof_3,
    Roof,
    Interior Ceiling,
    L2_Zone_40,
    ,
    Adiabatic,
    ,
    NoSun,
    NoWind,
    ,
    4,
    28.0995,
    8.6720,
    12.8500,
    28.0995,
    8.5710,
    12.8500,
    33.0035,
    8.5710,
    12.8500,
    33.0035,
    8.6720,
    12.8500;
BuildingSurface:Detailed,
    L2_Zone_40_Roof_4,
    Roof,
    Interior Ceiling,
    L2_Zone_40,
    ,
    Adiabatic,
    ,
    NoSun,
    NoWind,
    ,
    4,
    28.0995,
    11.0720,
    12.8500,
    28.0995,
    10.9710,
    12.8500,
    33.0035,
    10.9710,
    12.8500,
    33.0035,
    11.0720,
    12.8500;
BuildingSurface:Detailed,
    L2_Zone_40_Roof_5,
    Roof,
    Interior Ceiling,
    L2_Zone_40,
    ,
    Adiabatic,
    ,
    NoSun,
    NoWind,
    ,
    4,
    30.5034,
    10.9710,
    12.8500,
    30.5034,
    8.6720,
    12.8500,
    30.6044,
    8.6720,
    12.8500,
    30.6044,
    10.9710,
    12.8500;
BuildingSurface:Detailed,
    L2_Zone_40_Wall_1,
    Wall,
    Exterior Wall,
    L2_Zone_40,
    ,
    Outdoors,
    ,
    SunExposed,
    WindExposed,
    ,
    4,
    28.0995,
    5.0738,
    12.8500,
    28.0995,
    5.0738,
    7.0000,
    33.0035,
    5.0738,
    7.0000,
    33.0035,
    5.0738,
    12.8500;
BuildingSurface:Detailed,
    L2_Zone_40_Wall_2,
    Wall,
    Exterior Wall,
    L2_Zone_40,
    ,
    Outdoors,
    ,
    SunExposed,
    WindExposed,
    ,
    4,
    33.0035,
    5.0738,
    12.8500,
    33.0035,
    5.0738,
    7.0000,
    33.0035,
    12.4649,
    7.0000,
    33.0035,
    12.4649,
    12.8500;
BuildingSurface:Detailed,
    L2_Zone_40_Wall_3,
    Wall,
    Interior Wall,
    L2_Zone_40,
    ,
    Surface,
    L2_Zone_37_Wall_2,
    NoSun,
    NoWind,
    ,
    4,
    30.8035,
    12.4649,
    12.8500,
    30.8035,
    12.4649,
    7.0000,
    28.0995,
    12.4649,
    7.0000,
    28.0995,
    12.4649,
    12.8500;
BuildingSurface:Detailed,
    L2_Zone_40_Wall_4,
    Wall,
    Interior Wall,
    L2_Zone_40,
    ,
    Adiabatic,
    ,
    NoSun,
    NoWind,
    ,
    4,
    30.9045,
    12.4649,
    12.8500,
    30.9045,
    12.4649,
    7.0000,
    30.8035,
    12.4649,
    7.0000,
    30.8035,
    12.4649,
    12.8500;
BuildingSurface:Detailed,
    L2_Zone_40_Wall_5,
    Wall,
    Interior Wall,
    L2_Zone_40,
    ,
    Surface,
    L2_Zone_38_Wall_1,
    NoSun,
    NoWind,
    ,
    4,
    32.6035,
    12.4649,
    12.8500,
    32.6035,
    12.4649,
    7.0000,
    30.9045,
    12.4649,
    7.0000,
    30.9045,
    12.4649,
    12.8500;
BuildingSurface:Detailed,
    L2_Zone_40_Wall_6,
    Wall,
    Interior Wall,
    L2_Zone_40,
    ,
    Adiabatic,
    ,
    NoSun,
    NoWind,
    ,
    4,
    32.7045,
    12.4649,
    12.8500,
    32.7045,
    12.4649,
    7.0000,
    32.6035,
    12.4649,
    7.0000,
    32.6035,
    12.4649,
    12.8500;
BuildingSurface:Detailed,
    L2_Zone_40_Wall_7,
    Wall,
    Interior Wall,
    L2_Zone_40,
    ,
    Surface,
    L2_Zone_39_Wall_4,
    NoSun,
    NoWind,
    ,
    4,
    33.0035,
    12.4649,
    12.8500,
    33.0035,
    12.4649,
    7.0000,
    32.7045,
    12.4649,
    7.0000,
    32.7045,
    12.4649,
    12.8500;
BuildingSurface:Detailed,
    L2_Zone_40_Wall_8,
    Wall,
    Interior Wall,
    L2_Zone_40,
    ,
    Surface,
    L2_Zone_26_Wall_2,
    NoSun,
    NoWind,
    ,
    4,
    28.0995,
    8.5710,
    12.8500,
    28.0995,
    8.5710,
    7.0000,
    28.0995,
    5.0738,
    7.0000,
    28.0995,
    5.0738,
    12.8500;
BuildingSurface:Detailed,
    L2_Zone_40_Wall_9,
    Wall,
    Interior Wall,
    L2_Zone_40,
    ,
    Adiabatic,
    ,
    NoSun,
    NoWind,
    ,
    4,
    28.0995,
    8.6720,
    12.8500,
    28.0995,
    8.6720,
    7.0000,
    28.0995,
    8.5710,
    7.0000,
    28.0995,
    8.5710,
    12.8500;
BuildingSurface:Detailed,
    L2_Zone_40_Wall_10,
    Wall,
    Interior Wall,
    L2_Zone_40,
    ,
    Surface,
    L2_Zone_30_Wall_9,
    NoSun,
    NoWind,
    ,
    4,
    28.0995,
    10.9800,
    12.8500,
    28.0995,
    10.9800,
    7.0000,
    28.0995,
    8.6720,
    7.0000,
    28.0995,
    8.6720,
    12.8500;
BuildingSurface:Detailed,
    L2_Zone_40_Wall_11,
    Wall,
    Interior Wall,
    L2_Zone_40,
    ,
    Adiabatic,
    ,
    NoSun,
    NoWind,
    ,
    4,
    28.0995,
    11.0810,
    12.8500,
    28.0995,
    11.0810,
    7.0000,
    28.0995,
    10.9800,
    7.0000,
    28.0995,
    10.9800,
    12.8500;
BuildingSurface:Detailed,
    L2_Zone_40_Wall_12,
    Wall,
    Interior Wall,
    L2_Zone_40,
    ,
    Surface,
    L2_Zone_36_Wall_2,
    NoSun,
    NoWind,
    ,
    4,
    28.0995,
    12.4649,
    12.8500,
    28.0995,
    12.4649,
    7.0000,
    28.0995,
    11.0810,
    7.0000,
    28.0995,
    11.0810,
    12.8500;
BuildingSurface:Detailed,
    L2_Zone_42_Floor_1,
    Floor,
    Interior Floor,
    L2_Zone_42,
    ,
    Surface,
    L1_Zone_19_Ceiling_1,
    NoSun,
    NoWind,
    ,
    4,
    20.9808,
    8.5710,
    7.0000,
    20.9808,
    5.0738,
    7.0000,
    14.0044,
    5.0738,
    7.0000,
    14.0044,
    8.5710,
    7.0000;
BuildingSurface:Detailed,
    L2_Zone_42_Floor_2,
    Floor,
    Interior Floor,
    L2_Zone_42,
    ,
    Adiabatic,
    ,
    NoSun,
    NoWind,
    ,
    4,
    21.0058,
    8.5710,
    7.0000,
    21.0058,
    5.0738,
    7.0000,
    20.9808,
    5.0738,
    7.0000,
    20.9808,
    8.5710,
    7.0000;
BuildingSurface:Detailed,
    L2_Zone_42_Ceiling_1,
    Ceiling,
    Interior Ceiling,
    L2_Zone_42,
    ,
    Surface,
    L3_Zone_50_Floor_1,
    NoSun,
    NoWind,
    ,
    4,
    14.0044,
    8.5710,
    12.8500,
    14.0044,
    5.0738,
    12.8500,
    21.0058,
    5.0738,
    12.8500,
    21.0058,
    8.5710,
    12.8500;
BuildingSurface:Detailed,
    L2_Zone_42_Wall_1,
    Wall,
    Interior Wall,
    L2_Zone_42,
    ,
    Surface,
    L2_Zone_29_Wall_3,
    NoSun,
    NoWind,
    ,
    4,
    14.0044,
    5.0738,
    12.8500,
    14.0044,
    5.0738,
    7.0000,
    17.0035,
    5.0738,
    7.0000,
    17.0035,
    5.0738,
    12.8500;
BuildingSurface:Detailed,
    L2_Zone_42_Wall_2,
    Wall,
    Interior Wall,
    L2_Zone_42,
    ,
    Adiabatic,
    ,
    NoSun,
    NoWind,
    ,
    4,
    17.0035,
    5.0738,
    12.8500,
    17.0035,
    5.0738,
    7.0000,
    17.1045,
    5.0738,
    7.0000,
    17.1045,
    5.0738,
    12.8500;
BuildingSurface:Detailed,
    L2_Zone_42_Wall_3,
    Wall,
    Interior Wall,
    L2_Zone_42,
    ,
    Surface,
    L2_Zone_43_Wall_1,
    NoSun,
    NoWind,
    ,
    4,
    17.1045,
    5.0738,
    12.8500,
    17.1045,
    5.0738,
    7.0000,
    21.0058,
    5.0738,
    7.0000,
    21.0058,
    5.0738,
    12.8500;
BuildingSurface:Detailed,
    L2_Zone_42_Wall_4,
    Wall,
    Interior Wall,
    L2_Zone_42,
    ,
    Surface,
    L2_Zone_26_Wall_4,
    NoSun,
    NoWind,
    ,
    4,
    21.0058,
    5.0738,
    12.8500,
    21.0058,
    5.0738,
    7.0000,
    21.0058,
    8.5710,
    7.0000,
    21.0058,
    8.5710,
    12.8500;
BuildingSurface:Detailed,
    L2_Zone_42_Wall_5,
    Wall,
    Interior Wall,
    L2_Zone_42,
    ,
    Surface,
    L2_Zone_30_Wall_5,
    NoSun,
    NoWind,
    ,
    4,
    21.0058,
    8.5710,
    12.8500,
    21.0058,
    8.5710,
    7.0000,
    14.0044,
    8.5710,
    7.0000,
    14.0044,
    8.5710,
    12.8500;
BuildingSurface:Detailed,
    L2_Zone_42_Wall_6,
    Wall,
    Interior Wall,
    L2_Zone_42,
    ,
    Surface,
    L2_Zone_30_Wall_2,
    NoSun,
    NoWind,
    ,
    4,
    14.0044,
    8.5710,
    12.8500,
    14.0044,
    8.5710,
    7.0000,
    14.0044,
    5.0738,
    7.0000,
    14.0044,
    5.0738,
    12.8500;
BuildingSurface:Detailed,
    L2_Zone_43_Floor_1,
    Floor,
    Exterior Floor,
    L2_Zone_43,
    ,
    Outdoors,
    ,
    SunExposed,
    WindExposed,
    ,
    4,
    21.0058,
    4.9728,
    7.0000,
    21.0058,
    -1.3342,
    7.0000,
    17.1045,
    -1.3342,
    7.0000,
    17.1045,
    4.9728,
    7.0000;
BuildingSurface:Detailed,
    L2_Zone_43_Roof_1,
    Roof,
    Exterior Roof,
    L2_Zone_43,
    ,
    Outdoors,
    ,
    SunExposed,
    WindExposed,
    ,
    4,
    17.1045,
    4.9728,
    12.8500,
    17.1045,
    -1.3342,
    12.8500,
    21.0058,
    -1.3342,
    12.8500,
    21.0058,
    4.9728,
    12.8500;
BuildingSurface:Detailed,
    L2_Zone_43_Wall_1,
    Wall,
    Interior Wall,
    L2_Zone_43,
    ,
    Surface,
    L2_Zone_42_Wall_3,
    NoSun,
    NoWind,
    ,
    4,
    21.0058,
    4.9728,
    12.8500,
    21.0058,
    4.9728,
    7.0000,
    17.1045,
    4.9728,
    7.0000,
    17.1045,
    4.9728,
    12.8500;
BuildingSurface:Detailed,
    L2_Zone_43_Wall_2,
    Wall,
    Interior Wall,
    L2_Zone_43,
    ,
    Surface,
    L2_Zone_29_Wall_9,
    NoSun,
    NoWind,
    ,
    4,
    17.1045,
    4.9728,
    12.8500,
    17.1045,
    4.9728,
    7.0000,
    17.1045,
    -1.3342,
    7.0000,
    17.1045,
    -1.3342,
    12.8500;
BuildingSurface:Detailed,
    L2_Zone_43_Wall_3,
    Wall,
    Interior Wall,
    L2_Zone_43,
    ,
    Surface,
    L2_Zone_44_Wall_3,
    NoSun,
    NoWind,
    ,
    4,
    17.1045,
    -1.3342,
    12.8500,
    17.1045,
    -1.3342,
    7.0000,
    21.0058,
    -1.3342,
    7.0000,
    21.0058,
    -1.3342,
    12.8500;
BuildingSurface:Detailed,
    L2_Zone_43_Wall_4,
    Wall,
    Exterior Wall,
    L2_Zone_43,
    ,
    Outdoors,
    ,
    SunExposed,
    WindExposed,
    ,
    4,
    21.0058,
    -1.3342,
    12.8500,
    21.0058,
    -1.3342,
    7.0000,
    21.0058,
    4.9728,
    7.0000,
    21.0058,
    4.9728,
    12.8500;
BuildingSurface:Detailed,
    L2_Zone_44_Floor_1,
    Floor,
    Exterior Floor,
    L2_Zone_44,
    ,
    Outdoors,
    ,
    SunExposed,
    WindExposed,
    ,
    4,
    21.0058,
    -1.4352,
    7.0000,
    21.0058,
    -5.8262,
    7.0000,
    17.1045,
    -5.8262,
    7.0000,
    17.1045,
    -1.4352,
    7.0000;
BuildingSurface:Detailed,
    L2_Zone_44_Roof_1,
    Roof,
    Exterior Roof,
    L2_Zone_44,
    ,
    Outdoors,
    ,
    SunExposed,
    WindExposed,
    ,
    4,
    17.1045,
    -1.4352,
    12.8500,
    17.1045,
    -5.8262,
    12.8500,
    21.0058,
    -5.8262,
    12.8500,
    21.0058,
    -1.4352,
    12.8500;
BuildingSurface:Detailed,
    L2_Zone_44_Wall_1,
    Wall,
    Exterior Wall,
    L2_Zone_44,
    ,
    Outdoors,
    ,
    SunExposed,
    WindExposed,
    ,
    4,
    17.1045,
    -5.8262,
    12.8500,
    17.1045,
    -5.8262,
    7.0000,
    21.0058,
    -5.8262,
    7.0000,
    21.0058,
    -5.8262,
    12.8500;
BuildingSurface:Detailed,
    L2_Zone_44_Wall_2,
    Wall,
    Exterior Wall,
    L2_Zone_44,
    ,
    Outdoors,
    ,
    SunExposed,
    WindExposed,
    ,
    4,
    21.0058,
    -5.8262,
    12.8500,
    21.0058,
    -5.8262,
    7.0000,
    21.0058,
    -1.4352,
    7.0000,
    21.0058,
    -1.4352,
    12.8500;
BuildingSurface:Detailed,
    L2_Zone_44_Wall_3,
    Wall,
    Interior Wall,
    L2_Zone_44,
    ,
    Surface,
    L2_Zone_43_Wall_3,
    NoSun,
    NoWind,
    ,
    4,
    21.0058,
    -1.4352,
    12.8500,
    21.0058,
    -1.4352,
    7.0000,
    17.1045,
    -1.4352,
    7.0000,
    17.1045,
    -1.4352,
    12.8500;
BuildingSurface:Detailed,
    L2_Zone_44_Wall_4,
    Wall,
    Interior Wall,
    L2_Zone_44,
    ,
    Surface,
    L2_Zone_29_Wall_7,
    NoSun,
    NoWind,
    ,
    4,
    17.1045,
    -1.4352,
    12.8500,
    17.1045,
    -1.4352,
    7.0000,
    17.1045,
    -5.8262,
    7.0000,
    17.1045,
    -5.8262,
    12.8500;
BuildingSurface:Detailed,
    L3_Zone_45_Floor_1,
    Floor,
    Interior Floor,
    L3_Zone_45,
    ,
    Surface,
    L2_Zone_31_Ceiling_1,
    NoSun,
    NoWind,
    ,
    4,
    11.4034,
    14.5728,
    13.0000,
    11.4034,
    10.6810,
    13.0000,
    7.5068,
    10.6810,
    13.0000,
    7.5068,
    14.5728,
    13.0000;
BuildingSurface:Detailed,
    L3_Zone_45_Floor_2,
    Floor,
    Interior Floor,
    L3_Zone_45,
    ,
    Adiabatic,
    ,
    NoSun,
    NoWind,
    ,
    4,
    11.4034,
    10.6810,
    13.0000,
    11.4034,
    10.6720,
    13.0000,
    7.5068,
    10.6720,
    13.0000,
    7.5068,
    10.6810,
    13.0000;
BuildingSurface:Detailed,
    L3_Zone_45_Ceiling_1,
    Ceiling,
    Interior Ceiling,
    L3_Zone_45,
    ,
    Surface,
    L4_Zone_58_Floor_1,
    NoSun,
    NoWind,
    ,
    4,
    7.5068,
    14.5728,
    16.8500,
    7.5068,
    10.6920,
    16.8500,
    11.4034,
    10.6920,
    16.8500,
    11.4034,
    14.5728,
    16.8500;
BuildingSurface:Detailed,
    L3_Zone_45_Roof_1,
    Roof,
    Interior Ceiling,
    L3_Zone_45,
    ,
    Adiabatic,
    ,
    NoSun,
    NoWind,
    ,
    4,
    7.5068,
    10.6920,
    16.8500,
    7.5068,
    10.6720,
    16.8500,
    11.4034,
    10.6720,
    16.8500,
    11.4034,
    10.6920,
    16.8500;
BuildingSurface:Detailed,
    L3_Zone_45_Wall_1,
    Wall,
    Exterior Wall,
    L3_Zone_45,
    ,
    Outdoors,
    ,
    SunExposed,
    WindExposed,
    ,
    4,
    11.4034,
    14.5728,
    16.8500,
    11.4034,
    14.5728,
    13.0000,
    7.5068,
    14.5728,
    13.0000,
    7.5068,
    14.5728,
    16.8500;
BuildingSurface:Detailed,
    L3_Zone_45_Wall_2,
    Wall,
    Exterior Wall,
    L3_Zone_45,
    ,
    Outdoors,
    ,
    SunExposed,
    WindExposed,
    ,
    4,
    7.5068,
    14.5728,
    16.8500,
    7.5068,
    14.5728,
    13.0000,
    7.5068,
    10.6720,
    13.0000,
    7.5068,
    10.6720,
    16.8500;
BuildingSurface:Detailed,
    L3_Zone_45_Wall_3,
    Wall,
    Interior Wall,
    L3_Zone_45,
    ,
    Surface,
    L3_Zone_47_Wall_31,
    NoSun,
    NoWind,
    ,
    4,
    7.5068,
    10.6720,
    16.8500,
    7.5068,
    10.6720,
    13.0000,
    11.4034,
    10.6720,
    13.0000,
    11.4034,
    10.6720,
    16.8500;
BuildingSurface:Detailed,
    L3_Zone_45_Wall_4,
    Wall,
    Interior Wall,
    L3_Zone_45,
    ,
    Surface,
    L3_Zone_47_Wall_30,
    NoSun,
    NoWind,
    ,
    4,
    11.4034,
    10.6720,
    16.8500,
    11.4034,
    10.6720,
    13.0000,
    11.4034,
    10.9710,
    13.0000,
    11.4034,
    10.9710,
    16.8500;
BuildingSurface:Detailed,
    L3_Zone_45_Wall_5,
    Wall,
    Interior Wall,
    L3_Zone_45,
    ,
    Adiabatic,
    ,
    NoSun,
    NoWind,
    ,
    4,
    11.4034,
    10.9710,
    16.8500,
    11.4034,
    10.9710,
    13.0000,
    11.4034,
    11.0720,
    13.0000,
    11.4034,
    11.0720,
    16.8500;
BuildingSurface:Detailed,
    L3_Zone_45_Wall_6,
    Wall,
    Interior Wall,
    L3_Zone_45,
    ,
    Surface,
    L3_Zone_46_Wall_2,
    NoSun,
    NoWind,
    ,
    4,
    11.4034,
    11.0720,
    16.8500,
    11.4034,
    11.0720,
    13.0000,
    11.4034,
    14.5728,
    13.0000,
    11.4034,
    14.5728,
    16.8500;
BuildingSurface:Detailed,
    L3_Zone_46_Floor_1,
    Floor,
    Interior Floor,
    L3_Zone_46,
    ,
    Surface,
    L2_Zone_32_Ceiling_1,
    NoSun,
    NoWind,
    ,
    4,
    13.9034,
    14.5728,
    13.0000,
    13.9034,
    11.0810,
    13.0000,
    11.5137,
    11.0810,
    13.0000,
    11.5137,
    14.5728,
    13.0000;
BuildingSurface:Detailed,
    L3_Zone_46_Floor_2,
    Floor,
    Interior Floor,
    L3_Zone_46,
    ,
    Adiabatic,
    ,
    NoSun,
    NoWind,
    ,
    4,
    11.5137,
    14.5728,
    13.0000,
    11.5137,
    11.0810,
    13.0000,
    11.5044,
    11.0810,
    13.0000,
    11.5044,
    14.5728,
    13.0000;
BuildingSurface:Detailed,
    L3_Zone_46_Floor_3,
    Floor,
    Interior Floor,
    L3_Zone_46,
    ,
    Adiabatic,
    ,
    NoSun,
    NoWind,
    ,
    4,
    13.9034,
    11.0810,
    13.0000,
    13.9034,
    11.0720,
    13.0000,
    11.5044,
    11.0720,
    13.0000,
    11.5044,
    11.0810,
    13.0000;
BuildingSurface:Detailed,
    L3_Zone_46_Ceiling_1,
    Ceiling,
    Interior Ceiling,
    L3_Zone_46,
    ,
    Surface,
    L4_Zone_58_Floor_3,
    NoSun,
    NoWind,
    ,
    4,
    11.5044,
    14.5728,
    16.8500,
    11.5044,
    11.0720,
    16.8500,
    13.8963,
    11.0720,
    16.8500,
    13.8963,
    14.5728,
    16.8500;
BuildingSurface:Detailed,
    L3_Zone_46_Roof_1,
    Roof,
    Interior Ceiling,
    L3_Zone_46,
    ,
    Adiabatic,
    ,
    NoSun,
    NoWind,
    ,
    4,
    13.8963,
    14.5728,
    16.8500,
    13.8963,
    11.0720,
    16.8500,
    13.9034,
    11.0720,
    16.8500,
    13.9034,
    14.5728,
    16.8500;
BuildingSurface:Detailed,
    L3_Zone_46_Wall_1,
    Wall,
    Exterior Wall,
    L3_Zone_46,
    ,
    Outdoors,
    ,
    SunExposed,
    WindExposed,
    ,
    4,
    13.9034,
    14.5728,
    16.8500,
    13.9034,
    14.5728,
    13.0000,
    11.5044,
    14.5728,
    13.0000,
    11.5044,
    14.5728,
    16.8500;
BuildingSurface:Detailed,
    L3_Zone_46_Wall_2,
    Wall,
    Interior Wall,
    L3_Zone_46,
    ,
    Surface,
    L3_Zone_45_Wall_6,
    NoSun,
    NoWind,
    ,
    4,
    11.5044,
    14.5728,
    16.8500,
    11.5044,
    14.5728,
    13.0000,
    11.5044,
    11.0720,
    13.0000,
    11.5044,
    11.0720,
    16.8500;
BuildingSurface:Detailed,
    L3_Zone_46_Wall_3,
    Wall,
    Interior Wall,
    L3_Zone_46,
    ,
    Surface,
    L3_Zone_47_Wall_27,
    NoSun,
    NoWind,
    ,
    4,
    11.5044,
    11.0720,
    16.8500,
    11.5044,
    11.0720,
    13.0000,
    13.9034,
    11.0720,
    13.0000,
    13.9034,
    11.0720,
    16.8500;
BuildingSurface:Detailed,
    L3_Zone_46_Wall_4,
    Wall,
    Interior Wall,
    L3_Zone_46,
    ,
    Surface,
    L3_Zone_49_Wall_2,
    NoSun,
    NoWind,
    ,
    4,
    13.9034,
    11.0720,
    16.8500,
    13.9034,
    11.0720,
    13.0000,
    13.9034,
    14.5728,
    13.0000,
    13.9034,
    14.5728,
    16.8500;
BuildingSurface:Detailed,
    L3_Zone_47_Floor_1,
    Floor,
    Interior Floor,
    L3_Zone_47,
    ,
    Surface,
    L2_Zone_30_Ceiling_1,
    NoSun,
    NoWind,
    ,
    4,
    13.9034,
    8.6720,
    13.0000,
    13.9034,
    5.0738,
    13.0000,
    7.5068,
    5.0738,
    13.0000,
    7.5068,
    8.6720,
    13.0000;
BuildingSurface:Detailed,
    L3_Zone_47_Floor_2,
    Floor,
    Interior Floor,
    L3_Zone_47,
    ,
    Surface,
    L2_Zone_30_Ceiling_2,
    NoSun,
    NoWind,
    ,
    4,
    27.9985,
    10.5710,
    13.0000,
    27.9985,
    8.6720,
    13.0000,
    7.5068,
    8.6720,
    13.0000,
    7.5068,
    10.5710,
    13.0000;
BuildingSurface:Detailed,
    L3_Zone_47_Floor_3,
    Floor,
    Interior Floor,
    L3_Zone_47,
    ,
    Surface,
    L2_Zone_30_Ceiling_3,
    NoSun,
    NoWind,
    ,
    4,
    27.9985,
    10.5800,
    13.0000,
    27.9985,
    10.5710,
    13.0000,
    11.5044,
    10.5710,
    13.0000,
    11.5044,
    10.5800,
    13.0000;
BuildingSurface:Detailed,
    L3_Zone_47_Floor_4,
    Floor,
    Interior Floor,
    L3_Zone_47,
    ,
    Surface,
    L2_Zone_30_Ceiling_4,
    NoSun,
    NoWind,
    ,
    4,
    27.9985,
    10.9710,
    13.0000,
    27.9985,
    10.5800,
    13.0000,
    11.5137,
    10.5800,
    13.0000,
    11.5137,
    10.9710,
    13.0000;
BuildingSurface:Detailed,
    L3_Zone_47_Floor_5,
    Floor,
    Interior Floor,
    L3_Zone_47,
    ,
    Surface,
    L2_Zone_40_Ceiling_1,
    NoSun,
    NoWind,
    ,
    4,
    30.5034,
    10.9710,
    13.0000,
    30.5034,
    8.6720,
    13.0000,
    28.0995,
    8.6720,
    13.0000,
    28.0995,
    10.9710,
    13.0000;
BuildingSurface:Detailed,
    L3_Zone_47_Floor_6,
    Floor,
    Interior Floor,
    L3_Zone_47,
    ,
    Adiabatic,
    ,
    NoSun,
    NoWind,
    ,
    4,
    13.9034,
    5.0738,
    13.0000,
    13.9034,
    5.0720,
    13.0000,
    7.5068,
    5.0720,
    13.0000,
    7.5068,
    5.0738,
    13.0000;
BuildingSurface:Detailed,
    L3_Zone_47_Floor_7,
    Floor,
    Interior Floor,
    L3_Zone_47,
    ,
    Adiabatic,
    ,
    NoSun,
    NoWind,
    ,
    4,
    11.5137,
    10.9710,
    13.0000,
    11.5137,
    10.5800,
    13.0000,
    11.5044,
    10.5800,
    13.0000,
    11.5044,
    10.9710,
    13.0000;
BuildingSurface:Detailed,
    L3_Zone_47_Floor_8,
    Floor,
    Interior Floor,
    L3_Zone_47,
    ,
    Adiabatic,
    ,
    NoSun,
    NoWind,
    ,
    4,
    28.0995,
    10.9710,
    13.0000,
    28.0995,
    8.6720,
    13.0000,
    27.9985,
    8.6720,
    13.0000,
    27.9985,
    10.9710,
    13.0000;
BuildingSurface:Detailed,
    L3_Zone_47_Ceiling_1,
    Ceiling,
    Interior Ceiling,
    L3_Zone_47,
    ,
    Surface,
    L4_Zone_58_Floor_2,
    NoSun,
    NoWind,
    ,
    4,
    11.5044,
    10.9710,
    16.8500,
    11.5044,
    10.6920,
    16.8500,
    13.8963,
    10.6920,
    16.8500,
    13.8963,
    10.9710,
    16.8500;
BuildingSurface:Detailed,
    L3_Zone_47_Ceiling_2,
    Ceiling,
    Interior Ceiling,
    L3_Zone_47,
    ,
    Surface,
    L4_Zone_60_Floor_1,
    NoSun,
    NoWind,
    ,
    4,
    13.9973,
    10.9710,
    16.8500,
    13.9973,
    8.6720,
    16.8500,
    21.0010,
    8.6720,
    16.8500,
    21.0010,
    10.9710,
    16.8500;
BuildingSurface:Detailed,
    L3_Zone_47_Roof_1,
    Roof,
    Exterior Roof,
    L3_Zone_47,
    ,
    Outdoors,
    ,
    SunExposed,
    WindExposed,
    ,
    4,
    7.5068,
    8.6720,
    16.8500,
    7.5068,
    5.0720,
    16.8500,
    13.9034,
    5.0720,
    16.8500,
    13.9034,
    8.6720,
    16.8500;
BuildingSurface:Detailed,
    L3_Zone_47_Roof_2,
    Roof,
    Exterior Roof,
    L3_Zone_47,
    ,
    Outdoors,
    ,
    SunExposed,
    WindExposed,
    ,
    4,
    7.5068,
    10.5710,
    16.8500,
    7.5068,
    8.6720,
    16.8500,
    13.9973,
    8.6720,
    16.8500,
    13.9973,
    10.5710,
    16.8500;
BuildingSurface:Detailed,
    L3_Zone_47_Roof_3,
    Roof,
    Exterior Roof,
    L3_Zone_47,
    ,
    Outdoors,
    ,
    SunExposed,
    WindExposed,
    ,
    4,
    11.5044,
    10.6920,
    16.8500,
    11.5044,
    10.5710,
    16.8500,
    13.9973,
    10.5710,
    16.8500,
    13.9973,
    10.6920,
    16.8500;
BuildingSurface:Detailed,
    L3_Zone_47_Roof_4,
    Roof,
    Interior Ceiling,
    L3_Zone_47,
    ,
    Adiabatic,
    ,
    NoSun,
    NoWind,
    ,
    4,
    13.8963,
    10.9710,
    16.8500,
    13.8963,
    10.6920,
    16.8500,
    13.9973,
    10.6920,
    16.8500,
    13.9973,
    10.9710,
    16.8500;
BuildingSurface:Detailed,
    L3_Zone_47_Roof_5,
    Roof,
    Exterior Roof,
    L3_Zone_47,
    ,
    Outdoors,
    ,
    SunExposed,
    WindExposed,
    ,
    4,
    21.0010,
    10.9710,
    16.8500,
    21.0010,
    8.6720,
    16.8500,
    30.5034,
    8.6720,
    16.8500,
    30.5034,
    10.9710,
    16.8500;
BuildingSurface:Detailed,
    L3_Zone_47_Wall_1,
    Wall,
    Exterior Wall,
    L3_Zone_47,
    ,
    Outdoors,
    ,
    SunExposed,
    WindExposed,
    ,
    4,
    7.5068,
    5.0720,
    16.8500,
    7.5068,
    5.0720,
    13.0000,
    13.9034,
    5.0720,
    13.0000,
    13.9034,
    5.0720,
    16.8500;
BuildingSurface:Detailed,
    L3_Zone_47_Wall_2,
    Wall,
    Interior Wall,
    L3_Zone_47,
    ,
    Surface,
    L3_Zone_50_Wall_4,
    NoSun,
    NoWind,
    ,
    4,
    13.9034,
    5.0720,
    16.8500,
    13.9034,
    5.0720,
    13.0000,
    13.9034,
    8.5710,
    13.0000,
    13.9034,
    8.5710,
    16.8500;
BuildingSurface:Detailed,
    L3_Zone_47_Wall_3,
    Wall,
    Interior Wall,
    L3_Zone_47,
    ,
    Adiabatic,
    ,
    NoSun,
    NoWind,
    ,
    4,
    13.9034,
    8.5710,
    16.8500,
    13.9034,
    8.5710,
    13.0000,
    13.9034,
    8.6720,
    13.0000,
    13.9034,
    8.6720,
    16.8500;
BuildingSurface:Detailed,
    L3_Zone_47_Wall_4,
    Wall,
    Interior Wall,
    L3_Zone_47,
    ,
    Adiabatic,
    ,
    NoSun,
    NoWind,
    ,
    4,
    13.9034,
    8.6720,
    16.8500,
    13.9034,
    8.6720,
    13.0000,
    14.0044,
    8.6720,
    13.0000,
    14.0044,
    8.6720,
    16.8500;
BuildingSurface:Detailed,
    L3_Zone_47_Wall_5,
    Wall,
    Interior Wall,
    L3_Zone_47,
    ,
    Surface,
    L3_Zone_50_Wall_3,
    NoSun,
    NoWind,
    ,
    4,
    14.0044,
    8.6720,
    16.8500,
    14.0044,
    8.6720,
    13.0000,
    21.0233,
    8.6720,
    13.0000,
    21.0233,
    8.6720,
    16.8500;
BuildingSurface:Detailed,
    L3_Zone_47_Wall_6,
    Wall,
    Interior Wall,
    L3_Zone_47,
    ,
    Adiabatic,
    ,
    NoSun,
    NoWind,
    ,
    4,
    21.0233,
    8.6720,
    16.8500,
    21.0233,
    8.6720,
    13.0000,
    21.0738,
    8.6720,
    13.0000,
    21.0738,
    8.6720,
    16.8500;
BuildingSurface:Detailed,
    L3_Zone_47_Wall_7,
    Wall,
    Interior Wall,
    L3_Zone_47,
    ,
    Adiabatic,
    ,
    NoSun,
    NoWind,
    ,
    4,
    21.0738,
    8.6720,
    16.8500,
    21.0738,
    8.6720,
    13.0000,
    21.1243,
    8.6720,
    13.0000,
    21.1243,
    8.6720,
    16.8500;
BuildingSurface:Detailed,
    L3_Zone_47_Wall_8,
    Wall,
    Interior Wall,
    L3_Zone_47,
    ,
    Surface,
    L3_Zone_54_Wall_3,
    NoSun,
    NoWind,
    ,
    4,
    21.1243,
    8.6720,
    16.8500,
    21.1243,
    8.6720,
    13.0000,
    28.0034,
    8.6720,
    13.0000,
    28.0034,
    8.6720,
    16.8500;
BuildingSurface:Detailed,
    L3_Zone_47_Wall_9,
    Wall,
    Interior Wall,
    L3_Zone_47,
    ,
    Adiabatic,
    ,
    NoSun,
    NoWind,
    ,
    4,
    28.0034,
    8.6720,
    16.8500,
    28.0034,
    8.6720,
    13.0000,
    28.0539,
    8.6720,
    13.0000,
    28.0539,
    8.6720,
    16.8500;
BuildingSurface:Detailed,
    L3_Zone_47_Wall_10,
    Wall,
    Interior Wall,
    L3_Zone_47,
    ,
    Adiabatic,
    ,
    NoSun,
    NoWind,
    ,
    4,
    28.0539,
    8.6720,
    16.8500,
    28.0539,
    8.6720,
    13.0000,
    28.1044,
    8.6720,
    13.0000,
    28.1044,
    8.6720,
    16.8500;
BuildingSurface:Detailed,
    L3_Zone_47_Wall_11,
    Wall,
    Interior Wall,
    L3_Zone_47,
    ,
    Surface,
    L3_Zone_55_Wall_2,
    NoSun,
    NoWind,
    ,
    4,
    28.1044,
    8.6720,
    16.8500,
    28.1044,
    8.6720,
    13.0000,
    30.5034,
    8.6720,
    13.0000,
    30.5034,
    8.6720,
    16.8500;
BuildingSurface:Detailed,
    L3_Zone_47_Wall_12,
    Wall,
    Interior Wall,
    L3_Zone_47,
    ,
    Surface,
    L3_Zone_56_Wall_3,
    NoSun,
    NoWind,
    ,
    4,
    30.5034,
    8.6720,
    16.8500,
    30.5034,
    8.6720,
    13.0000,
    30.5034,
    10.9710,
    13.0000,
    30.5034,
    10.9710,
    16.8500;
BuildingSurface:Detailed,
    L3_Zone_47_Wall_13,
    Wall,
    Interior Wall,
    L3_Zone_47,
    ,
    Adiabatic,
    ,
    NoSun,
    NoWind,
    ,
    4,
    28.1044,
    10.9710,
    16.8500,
    28.1044,
    10.9710,
    13.0000,
    28.0539,
    10.9710,
    13.0000,
    28.0539,
    10.9710,
    16.8500;
BuildingSurface:Detailed,
    L3_Zone_47_Wall_14,
    Wall,
    Interior Wall,
    L3_Zone_47,
    ,
    Surface,
    L3_Zone_57_Wall_4,
    NoSun,
    NoWind,
    ,
    4,
    30.5034,
    10.9710,
    16.8500,
    30.5034,
    10.9710,
    13.0000,
    28.1044,
    10.9710,
    13.0000,
    28.1044,
    10.9710,
    16.8500;
BuildingSurface:Detailed,
    L3_Zone_47_Wall_15,
    Wall,
    Interior Wall,
    L3_Zone_47,
    ,
    Adiabatic,
    ,
    NoSun,
    NoWind,
    ,
    4,
    21.1394,
    10.9710,
    16.8500,
    21.1394,
    10.9710,
    13.0000,
    21.0889,
    10.9710,
    13.0000,
    21.0889,
    10.9710,
    16.8500;
BuildingSurface:Detailed,
    L3_Zone_47_Wall_16,
    Wall,
    Interior Wall,
    L3_Zone_47,
    ,
    Surface,
    L3_Zone_53_Wall_3,
    NoSun,
    NoWind,
    ,
    4,
    28.0034,
    10.9710,
    16.8500,
    28.0034,
    10.9710,
    13.0000,
    21.1394,
    10.9710,
    13.0000,
    21.1394,
    10.9710,
    16.8500;
BuildingSurface:Detailed,
    L3_Zone_47_Wall_17,
    Wall,
    Interior Wall,
    L3_Zone_47,
    ,
    Adiabatic,
    ,
    NoSun,
    NoWind,
    ,
    4,
    28.0539,
    10.9710,
    16.8500,
    28.0539,
    10.9710,
    13.0000,
    28.0034,
    10.9710,
    13.0000,
    28.0034,
    10.9710,
    16.8500;
BuildingSurface:Detailed,
    L3_Zone_47_Wall_18,
    Wall,
    Interior Wall,
    L3_Zone_47,
    ,
    Adiabatic,
    ,
    NoSun,
    NoWind,
    ,
    4,
    19.4544,
    10.9710,
    16.8500,
    19.4544,
    10.9710,
    13.0000,
    19.4039,
    10.9710,
    13.0000,
    19.4039,
    10.9710,
    16.8500;
BuildingSurface:Detailed,
    L3_Zone_47_Wall_19,
    Wall,
    Interior Wall,
    L3_Zone_47,
    ,
    Surface,
    L3_Zone_52_Wall_3,
    NoSun,
    NoWind,
    ,
    4,
    21.0384,
    10.9710,
    16.8500,
    21.0384,
    10.9710,
    13.0000,
    19.4544,
    10.9710,
    13.0000,
    19.4544,
    10.9710,
    16.8500;
BuildingSurface:Detailed,
    L3_Zone_47_Wall_20,
    Wall,
    Interior Wall,
    L3_Zone_47,
    ,
    Adiabatic,
    ,
    NoSun,
    NoWind,
    ,
    4,
    21.0889,
    10.9710,
    16.8500,
    21.0889,
    10.9710,
    13.0000,
    21.0384,
    10.9710,
    13.0000,
    21.0384,
    10.9710,
    16.8500;
BuildingSurface:Detailed,
    L3_Zone_47_Wall_21,
    Wall,
    Interior Wall,
    L3_Zone_47,
    ,
    Adiabatic,
    ,
    NoSun,
    NoWind,
    ,
    4,
    17.5544,
    10.9710,
    16.8500,
    17.5544,
    10.9710,
    13.0000,
    17.5039,
    10.9710,
    13.0000,
    17.5039,
    10.9710,
    16.8500;
BuildingSurface:Detailed,
    L3_Zone_47_Wall_22,
    Wall,
    Interior Wall,
    L3_Zone_47,
    ,
    Surface,
    L3_Zone_51_Wall_3,
    NoSun,
    NoWind,
    ,
    4,
    19.3534,
    10.9710,
    16.8500,
    19.3534,
    10.9710,
    13.0000,
    17.5544,
    10.9710,
    13.0000,
    17.5544,
    10.9710,
    16.8500;
BuildingSurface:Detailed,
    L3_Zone_47_Wall_23,
    Wall,
    Interior Wall,
    L3_Zone_47,
    ,
    Adiabatic,
    ,
    NoSun,
    NoWind,
    ,
    4,
    19.4039,
    10.9710,
    16.8500,
    19.4039,
    10.9710,
    13.0000,
    19.3534,
    10.9710,
    13.0000,
    19.3534,
    10.9710,
    16.8500;
BuildingSurface:Detailed,
    L3_Zone_47_Wall_24,
    Wall,
    Interior Wall,
    L3_Zone_47,
    ,
    Adiabatic,
    ,
    NoSun,
    NoWind,
    ,
    4,
    14.0044,
    10.9710,
    16.8500,
    14.0044,
    10.9710,
    13.0000,
    13.9539,
    10.9710,
    13.0000,
    13.9539,
    10.9710,
    16.8500;
BuildingSurface:Detailed,
    L3_Zone_47_Wall_25,
    Wall,
    Interior Wall,
    L3_Zone_47,
    ,
    Surface,
    L3_Zone_49_Wall_3,
    NoSun,
    NoWind,
    ,
    4,
    17.4534,
    10.9710,
    16.8500,
    17.4534,
    10.9710,
    13.0000,
    14.0044,
    10.9710,
    13.0000,
    14.0044,
    10.9710,
    16.8500;
BuildingSurface:Detailed,
    L3_Zone_47_Wall_26,
    Wall,
    Interior Wall,
    L3_Zone_47,
    ,
    Adiabatic,
    ,
    NoSun,
    NoWind,
    ,
    4,
    17.5039,
    10.9710,
    16.8500,
    17.5039,
    10.9710,
    13.0000,
    17.4534,
    10.9710,
    13.0000,
    17.4534,
    10.9710,
    16.8500;
BuildingSurface:Detailed,
    L3_Zone_47_Wall_27,
    Wall,
    Interior Wall,
    L3_Zone_47,
    ,
    Surface,
    L3_Zone_46_Wall_3,
    NoSun,
    NoWind,
    ,
    4,
    13.9034,
    10.9710,
    16.8500,
    13.9034,
    10.9710,
    13.0000,
    11.5044,
    10.9710,
    13.0000,
    11.5044,
    10.9710,
    16.8500;
BuildingSurface:Detailed,
    L3_Zone_47_Wall_28,
    Wall,
    Interior Wall,
    L3_Zone_47,
    ,
    Adiabatic,
    ,
    NoSun,
    NoWind,
    ,
    4,
    13.9539,
    10.9710,
    16.8500,
    13.9539,
    10.9710,
    13.0000,
    13.9034,
    10.9710,
    13.0000,
    13.9034,
    10.9710,
    16.8500;
BuildingSurface:Detailed,
    L3_Zone_47_Wall_29,
    Wall,
    Interior Wall,
    L3_Zone_47,
    ,
    Adiabatic,
    ,
    NoSun,
    NoWind,
    ,
    4,
    11.5044,
    10.6720,
    16.8500,
    11.5044,
    10.6720,
    13.0000,
    11.5044,
    10.5710,
    13.0000,
    11.5044,
    10.5710,
    16.8500;
BuildingSurface:Detailed,
    L3_Zone_47_Wall_30,
    Wall,
    Interior Wall,
    L3_Zone_47,
    ,
    Surface,
    L3_Zone_45_Wall_4,
    NoSun,
    NoWind,
    ,
    4,
    11.5044,
    10.9710,
    16.8500,
    11.5044,
    10.9710,
    13.0000,
    11.5044,
    10.6720,
    13.0000,
    11.5044,
    10.6720,
    16.8500;
BuildingSurface:Detailed,
    L3_Zone_47_Wall_31,
    Wall,
    Interior Wall,
    L3_Zone_47,
    ,
    Surface,
    L3_Zone_45_Wall_3,
    NoSun,
    NoWind,
    ,
    4,
    11.4034,
    10.5710,
    16.8500,
    11.4034,
    10.5710,
    13.0000,
    7.5068,
    10.5710,
    13.0000,
    7.5068,
    10.5710,
    16.8500;
BuildingSurface:Detailed,
    L3_Zone_47_Wall_32,
    Wall,
    Interior Wall,
    L3_Zone_47,
    ,
    Adiabatic,
    ,
    NoSun,
    NoWind,
    ,
    4,
    11.5044,
    10.5710,
    16.8500,
    11.5044,
    10.5710,
    13.0000,
    11.4034,
    10.5710,
    13.0000,
    11.4034,
    10.5710,
    16.8500;
BuildingSurface:Detailed,
    L3_Zone_47_Wall_33,
    Wall,
    Exterior Wall,
    L3_Zone_47,
    ,
    Outdoors,
    ,
    SunExposed,
    WindExposed,
    ,
    4,
    7.5068,
    10.5710,
    16.8500,
    7.5068,
    10.5710,
    13.0000,
    7.5068,
    5.0720,
    13.0000,
    7.5068,
    5.0720,
    16.8500;
BuildingSurface:Detailed,
    L3_Zone_49_Floor_1,
    Floor,
    Interior Floor,
    L3_Zone_49,
    ,
    Surface,
    L2_Zone_32_Ceiling_2,
    NoSun,
    NoWind,
    ,
    4,
    14.5127,
    14.5728,
    13.0000,
    14.5127,
    11.0810,
    13.0000,
    14.0044,
    11.0810,
    13.0000,
    14.0044,
    14.5728,
    13.0000;
BuildingSurface:Detailed,
    L3_Zone_49_Floor_2,
    Floor,
    Interior Floor,
    L3_Zone_49,
    ,
    Surface,
    L2_Zone_34_Ceiling_1,
    NoSun,
    NoWind,
    ,
    4,
    17.4534,
    14.5728,
    13.0000,
    17.4534,
    11.0810,
    13.0000,
    14.6137,
    11.0810,
    13.0000,
    14.6137,
    14.5728,
    13.0000;
BuildingSurface:Detailed,
    L3_Zone_49_Floor_3,
    Floor,
    Interior Floor,
    L3_Zone_49,
    ,
    Adiabatic,
    ,
    NoSun,
    NoWind,
    ,
    4,
    17.4534,
    11.0810,
    13.0000,
    17.4534,
    11.0720,
    13.0000,
    14.0044,
    11.0720,
    13.0000,
    14.0044,
    11.0810,
    13.0000;
BuildingSurface:Detailed,
    L3_Zone_49_Floor_4,
    Floor,
    Interior Floor,
    L3_Zone_49,
    ,
    Adiabatic,
    ,
    NoSun,
    NoWind,
    ,
    4,
    14.6137,
    14.5728,
    13.0000,
    14.6137,
    11.0810,
    13.0000,
    14.5127,
    11.0810,
    13.0000,
    14.5127,
    14.5728,
    13.0000;
BuildingSurface:Detailed,
    L3_Zone_49_Ceiling_1,
    Ceiling,
    Interior Ceiling,
    L3_Zone_49,
    ,
    Surface,
    L4_Zone_60_Floor_2,
    NoSun,
    NoWind,
    ,
    4,
    14.0044,
    14.5728,
    16.8500,
    14.0044,
    11.0720,
    16.8500,
    17.4534,
    11.0720,
    16.8500,
    17.4534,
    14.5728,
    16.8500;
BuildingSurface:Detailed,
    L3_Zone_49_Wall_1,
    Wall,
    Exterior Wall,
    L3_Zone_49,
    ,
    Outdoors,
    ,
    SunExposed,
    WindExposed,
    ,
    4,
    17.4534,
    14.5728,
    16.8500,
    17.4534,
    14.5728,
    13.0000,
    14.0044,
    14.5728,
    13.0000,
    14.0044,
    14.5728,
    16.8500;
BuildingSurface:Detailed,
    L3_Zone_49_Wall_2,
    Wall,
    Interior Wall,
    L3_Zone_49,
    ,
    Surface,
    L3_Zone_46_Wall_4,
    NoSun,
    NoWind,
    ,
    4,
    14.0044,
    14.5728,
    16.8500,
    14.0044,
    14.5728,
    13.0000,
    14.0044,
    11.0720,
    13.0000,
    14.0044,
    11.0720,
    16.8500;
BuildingSurface:Detailed,
    L3_Zone_49_Wall_3,
    Wall,
    Interior Wall,
    L3_Zone_49,
    ,
    Surface,
    L3_Zone_47_Wall_25,
    NoSun,
    NoWind,
    ,
    4,
    14.0044,
    11.0720,
    16.8500,
    14.0044,
    11.0720,
    13.0000,
    17.4534,
    11.0720,
    13.0000,
    17.4534,
    11.0720,
    16.8500;
BuildingSurface:Detailed,
    L3_Zone_49_Wall_4,
    Wall,
    Interior Wall,
    L3_Zone_49,
    ,
    Surface,
    L3_Zone_51_Wall_2,
    NoSun,
    NoWind,
    ,
    4,
    17.4534,
    11.0720,
    16.8500,
    17.4534,
    11.0720,
    13.0000,
    17.4534,
    14.5728,
    13.0000,
    17.4534,
    14.5728,
    16.8500;
BuildingSurface:Detailed,
    L3_Zone_50_Floor_1,
    Floor,
    Interior Floor,
    L3_Zone_50,
    ,
    Surface,
    L2_Zone_42_Ceiling_1,
    NoSun,
    NoWind,
    ,
    4,
    21.0058,
    8.5710,
    13.0000,
    21.0058,
    5.0738,
    13.0000,
    14.0044,
    5.0738,
    13.0000,
    14.0044,
    8.5710,
    13.0000;
BuildingSurface:Detailed,
    L3_Zone_50_Floor_2,
    Floor,
    Interior Floor,
    L3_Zone_50,
    ,
    Adiabatic,
    ,
    NoSun,
    NoWind,
    ,
    4,
    21.0233,
    5.0738,
    13.0000,
    21.0233,
    5.0720,
    13.0000,
    14.0044,
    5.0720,
    13.0000,
    14.0044,
    5.0738,
    13.0000;
BuildingSurface:Detailed,
    L3_Zone_50_Floor_3,
    Floor,
    Interior Floor,
    L3_Zone_50,
    ,
    Adiabatic,
    ,
    NoSun,
    NoWind,
    ,
    4,
    21.0233,
    8.5710,
    13.0000,
    21.0233,
    5.0738,
    13.0000,
    21.0058,
    5.0738,
    13.0000,
    21.0058,
    8.5710,
    13.0000;
BuildingSurface:Detailed,
    L3_Zone_50_Ceiling_1,
    Ceiling,
    Interior Ceiling,
    L3_Zone_50,
    ,
    Surface,
    L4_Zone_61_Floor_1,
    NoSun,
    NoWind,
    ,
    4,
    14.0044,
    8.5660,
    16.8500,
    14.0044,
    5.0720,
    16.8500,
    21.0010,
    5.0720,
    16.8500,
    21.0010,
    8.5660,
    16.8500;
BuildingSurface:Detailed,
    L3_Zone_50_Roof_1,
    Roof,
    Interior Ceiling,
    L3_Zone_50,
    ,
    Adiabatic,
    ,
    NoSun,
    NoWind,
    ,
    4,
    14.0044,
    8.5710,
    16.8500,
    14.0044,
    8.5660,
    16.8500,
    21.0233,
    8.5660,
    16.8500,
    21.0233,
    8.5710,
    16.8500;
BuildingSurface:Detailed,
    L3_Zone_50_Roof_2,
    Roof,
    Interior Ceiling,
    L3_Zone_50,
    ,
    Adiabatic,
    ,
    NoSun,
    NoWind,
    ,
    4,
    21.0010,
    8.5660,
    16.8500,
    21.0010,
    5.0720,
    16.8500,
    21.0233,
    5.0720,
    16.8500,
    21.0233,
    8.5660,
    16.8500;
BuildingSurface:Detailed,
    L3_Zone_50_Wall_1,
    Wall,
    Exterior Wall,
    L3_Zone_50,
    ,
    Outdoors,
    ,
    SunExposed,
    WindExposed,
    ,
    4,
    14.0044,
    5.0720,
    16.8500,
    14.0044,
    5.0720,
    13.0000,
    21.0233,
    5.0720,
    13.0000,
    21.0233,
    5.0720,
    16.8500;
BuildingSurface:Detailed,
    L3_Zone_50_Wall_2,
    Wall,
    Interior Wall,
    L3_Zone_50,
    ,
    Surface,
    L3_Zone_54_Wall_4,
    NoSun,
    NoWind,
    ,
    4,
    21.0233,
    5.0720,
    16.8500,
    21.0233,
    5.0720,
    13.0000,
    21.0233,
    8.5710,
    13.0000,
    21.0233,
    8.5710,
    16.8500;
BuildingSurface:Detailed,
    L3_Zone_50_Wall_3,
    Wall,
    Interior Wall,
    L3_Zone_50,
    ,
    Surface,
    L3_Zone_47_Wall_5,
    NoSun,
    NoWind,
    ,
    4,
    21.0233,
    8.5710,
    16.8500,
    21.0233,
    8.5710,
    13.0000,
    14.0044,
    8.5710,
    13.0000,
    14.0044,
    8.5710,
    16.8500;
BuildingSurface:Detailed,
    L3_Zone_50_Wall_4,
    Wall,
    Interior Wall,
    L3_Zone_50,
    ,
    Surface,
    L3_Zone_47_Wall_2,
    NoSun,
    NoWind,
    ,
    4,
    14.0044,
    8.5710,
    16.8500,
    14.0044,
    8.5710,
    13.0000,
    14.0044,
    5.0720,
    13.0000,
    14.0044,
    5.0720,
    16.8500;
BuildingSurface:Detailed,
    L3_Zone_51_Floor_1,
    Floor,
    Interior Floor,
    L3_Zone_51,
    ,
    Surface,
    L2_Zone_34_Ceiling_2,
    NoSun,
    NoWind,
    ,
    4,
    17.7627,
    14.5728,
    13.0000,
    17.7627,
    11.0810,
    13.0000,
    17.5544,
    11.0810,
    13.0000,
    17.5544,
    14.5728,
    13.0000;
BuildingSurface:Detailed,
    L3_Zone_51_Floor_2,
    Floor,
    Interior Floor,
    L3_Zone_51,
    ,
    Surface,
    L2_Zone_35_Ceiling_1,
    NoSun,
    NoWind,
    ,
    4,
    19.3534,
    14.5728,
    13.0000,
    19.3534,
    11.0810,
    13.0000,
    17.8637,
    11.0810,
    13.0000,
    17.8637,
    14.5728,
    13.0000;
BuildingSurface:Detailed,
    L3_Zone_51_Floor_3,
    Floor,
    Interior Floor,
    L3_Zone_51,
    ,
    Adiabatic,
    ,
    NoSun,
    NoWind,
    ,
    4,
    19.3534,
    11.0810,
    13.0000,
    19.3534,
    11.0720,
    13.0000,
    17.5544,
    11.0720,
    13.0000,
    17.5544,
    11.0810,
    13.0000;
BuildingSurface:Detailed,
    L3_Zone_51_Floor_4,
    Floor,
    Interior Floor,
    L3_Zone_51,
    ,
    Adiabatic,
    ,
    NoSun,
    NoWind,
    ,
    4,
    17.8637,
    14.5728,
    13.0000,
    17.8637,
    11.0810,
    13.0000,
    17.7627,
    11.0810,
    13.0000,
    17.7627,
    14.5728,
    13.0000;
BuildingSurface:Detailed,
    L3_Zone_51_Ceiling_1,
    Ceiling,
    Interior Ceiling,
    L3_Zone_51,
    ,
    Surface,
    L4_Zone_60_Floor_3,
    NoSun,
    NoWind,
    ,
    4,
    17.5544,
    14.5728,
    16.8500,
    17.5544,
    11.0720,
    16.8500,
    19.3534,
    11.0720,
    16.8500,
    19.3534,
    14.5728,
    16.8500;
BuildingSurface:Detailed,
    L3_Zone_51_Wall_1,
    Wall,
    Exterior Wall,
    L3_Zone_51,
    ,
    Outdoors,
    ,
    SunExposed,
    WindExposed,
    ,
    4,
    19.3534,
    14.5728,
    16.8500,
    19.3534,
    14.5728,
    13.0000,
    17.5544,
    14.5728,
    13.0000,
    17.5544,
    14.5728,
    16.8500;
BuildingSurface:Detailed,
    L3_Zone_51_Wall_2,
    Wall,
    Interior Wall,
    L3_Zone_51,
    ,
    Surface,
    L3_Zone_49_Wall_4,
    NoSun,
    NoWind,
    ,
    4,
    17.5544,
    14.5728,
    16.8500,
    17.5544,
    14.5728,
    13.0000,
    17.5544,
    11.0720,
    13.0000,
    17.5544,
    11.0720,
    16.8500;
BuildingSurface:Detailed,
    L3_Zone_51_Wall_3,
    Wall,
    Interior Wall,
    L3_Zone_51,
    ,
    Surface,
    L3_Zone_47_Wall_22,
    NoSun,
    NoWind,
    ,
    4,
    17.5544,
    11.0720,
    16.8500,
    17.5544,
    11.0720,
    13.0000,
    19.3534,
    11.0720,
    13.0000,
    19.3534,
    11.0720,
    16.8500;
BuildingSurface:Detailed,
    L3_Zone_51_Wall_4,
    Wall,
    Interior Wall,
    L3_Zone_51,
    ,
    Surface,
    L3_Zone_52_Wall_2,
    NoSun,
    NoWind,
    ,
    4,
    19.3534,
    11.0720,
    16.8500,
    19.3534,
    11.0720,
    13.0000,
    19.3534,
    14.5728,
    13.0000,
    19.3534,
    14.5728,
    16.8500;
BuildingSurface:Detailed,
    L3_Zone_52_Floor_1,
    Floor,
    Interior Floor,
    L3_Zone_52,
    ,
    Surface,
    L2_Zone_35_Ceiling_2,
    NoSun,
    NoWind,
    ,
    4,
    21.0132,
    14.5728,
    13.0000,
    21.0132,
    11.0810,
    13.0000,
    19.4544,
    11.0810,
    13.0000,
    19.4544,
    14.5728,
    13.0000;
BuildingSurface:Detailed,
    L3_Zone_52_Floor_2,
    Floor,
    Interior Floor,
    L3_Zone_52,
    ,
    Adiabatic,
    ,
    NoSun,
    NoWind,
    ,
    4,
    21.0384,
    11.0810,
    13.0000,
    21.0384,
    11.0720,
    13.0000,
    19.4544,
    11.0720,
    13.0000,
    19.4544,
    11.0810,
    13.0000;
BuildingSurface:Detailed,
    L3_Zone_52_Floor_3,
    Floor,
    Interior Floor,
    L3_Zone_52,
    ,
    Adiabatic,
    ,
    NoSun,
    NoWind,
    ,
    4,
    21.0384,
    14.5728,
    13.0000,
    21.0384,
    11.0810,
    13.0000,
    21.0132,
    11.0810,
    13.0000,
    21.0132,
    14.5728,
    13.0000;
BuildingSurface:Detailed,
    L3_Zone_52_Ceiling_1,
    Ceiling,
    Interior Ceiling,
    L3_Zone_52,
    ,
    Surface,
    L4_Zone_60_Floor_4,
    NoSun,
    NoWind,
    ,
    4,
    19.4544,
    14.5728,
    16.8500,
    19.4544,
    11.0720,
    16.8500,
    21.0010,
    11.0720,
    16.8500,
    21.0010,
    14.5728,
    16.8500;
BuildingSurface:Detailed,
    L3_Zone_52_Roof_1,
    Roof,
    Interior Ceiling,
    L3_Zone_52,
    ,
    Adiabatic,
    ,
    NoSun,
    NoWind,
    ,
    4,
    21.0010,
    14.5728,
    16.8500,
    21.0010,
    11.0720,
    16.8500,
    21.0384,
    11.0720,
    16.8500,
    21.0384,
    14.5728,
    16.8500;
BuildingSurface:Detailed,
    L3_Zone_52_Wall_1,
    Wall,
    Exterior Wall,
    L3_Zone_52,
    ,
    Outdoors,
    ,
    SunExposed,
    WindExposed,
    ,
    4,
    21.0384,
    14.5728,
    16.8500,
    21.0384,
    14.5728,
    13.0000,
    19.4544,
    14.5728,
    13.0000,
    19.4544,
    14.5728,
    16.8500;
BuildingSurface:Detailed,
    L3_Zone_52_Wall_2,
    Wall,
    Interior Wall,
    L3_Zone_52,
    ,
    Surface,
    L3_Zone_51_Wall_4,
    NoSun,
    NoWind,
    ,
    4,
    19.4544,
    14.5728,
    16.8500,
    19.4544,
    14.5728,
    13.0000,
    19.4544,
    11.0720,
    13.0000,
    19.4544,
    11.0720,
    16.8500;
BuildingSurface:Detailed,
    L3_Zone_52_Wall_3,
    Wall,
    Interior Wall,
    L3_Zone_52,
    ,
    Surface,
    L3_Zone_47_Wall_19,
    NoSun,
    NoWind,
    ,
    4,
    19.4544,
    11.0720,
    16.8500,
    19.4544,
    11.0720,
    13.0000,
    21.0384,
    11.0720,
    13.0000,
    21.0384,
    11.0720,
    16.8500;
BuildingSurface:Detailed,
    L3_Zone_52_Wall_4,
    Wall,
    Interior Wall,
    L3_Zone_52,
    ,
    Surface,
    L3_Zone_53_Wall_2,
    NoSun,
    NoWind,
    ,
    4,
    21.0384,
    11.0720,
    16.8500,
    21.0384,
    11.0720,
    13.0000,
    21.0384,
    14.5728,
    13.0000,
    21.0384,
    14.5728,
    16.8500;
BuildingSurface:Detailed,
    L3_Zone_53_Floor_1,
    Floor,
    Interior Floor,
    L3_Zone_53,
    ,
    Surface,
    L2_Zone_36_Ceiling_1,
    NoSun,
    NoWind,
    ,
    4,
    27.9985,
    14.5728,
    13.0000,
    27.9985,
    11.0810,
    13.0000,
    21.1394,
    11.0810,
    13.0000,
    21.1394,
    14.5728,
    13.0000;
BuildingSurface:Detailed,
    L3_Zone_53_Floor_2,
    Floor,
    Interior Floor,
    L3_Zone_53,
    ,
    Adiabatic,
    ,
    NoSun,
    NoWind,
    ,
    4,
    28.0034,
    11.0810,
    13.0000,
    28.0034,
    11.0720,
    13.0000,
    21.1394,
    11.0720,
    13.0000,
    21.1394,
    11.0810,
    13.0000;
BuildingSurface:Detailed,
    L3_Zone_53_Floor_3,
    Floor,
    Interior Floor,
    L3_Zone_53,
    ,
    Adiabatic,
    ,
    NoSun,
    NoWind,
    ,
    4,
    28.0034,
    14.5728,
    13.0000,
    28.0034,
    11.0810,
    13.0000,
    27.9985,
    11.0810,
    13.0000,
    27.9985,
    14.5728,
    13.0000;
BuildingSurface:Detailed,
    L3_Zone_53_Roof_1,
    Roof,
    Exterior Roof,
    L3_Zone_53,
    ,
    Outdoors,
    ,
    SunExposed,
    WindExposed,
    ,
    4,
    21.1394,
    14.5728,
    16.8500,
    21.1394,
    11.0720,
    16.8500,
    28.0034,
    11.0720,
    16.8500,
    28.0034,
    14.5728,
    16.8500;
BuildingSurface:Detailed,
    L3_Zone_53_Wall_1,
    Wall,
    Exterior Wall,
    L3_Zone_53,
    ,
    Outdoors,
    ,
    SunExposed,
    WindExposed,
    ,
    4,
    28.0034,
    14.5728,
    16.8500,
    28.0034,
    14.5728,
    13.0000,
    21.1394,
    14.5728,
    13.0000,
    21.1394,
    14.5728,
    16.8500;
BuildingSurface:Detailed,
    L3_Zone_53_Wall_2,
    Wall,
    Interior Wall,
    L3_Zone_53,
    ,
    Surface,
    L3_Zone_52_Wall_4,
    NoSun,
    NoWind,
    ,
    4,
    21.1394,
    14.5728,
    16.8500,
    21.1394,
    14.5728,
    13.0000,
    21.1394,
    11.0720,
    13.0000,
    21.1394,
    11.0720,
    16.8500;
BuildingSurface:Detailed,
    L3_Zone_53_Wall_3,
    Wall,
    Interior Wall,
    L3_Zone_53,
    ,
    Surface,
    L3_Zone_47_Wall_16,
    NoSun,
    NoWind,
    ,
    4,
    21.1394,
    11.0720,
    16.8500,
    21.1394,
    11.0720,
    13.0000,
    28.0034,
    11.0720,
    13.0000,
    28.0034,
    11.0720,
    16.8500;
BuildingSurface:Detailed,
    L3_Zone_53_Wall_4,
    Wall,
    Interior Wall,
    L3_Zone_53,
    ,
    Surface,
    L3_Zone_57_Wall_3,
    NoSun,
    NoWind,
    ,
    4,
    28.0034,
    11.0720,
    16.8500,
    28.0034,
    11.0720,
    13.0000,
    28.0034,
    14.5728,
    13.0000,
    28.0034,
    14.5728,
    16.8500;
BuildingSurface:Detailed,
    L3_Zone_54_Floor_1,
    Floor,
    Interior Floor,
    L3_Zone_54,
    ,
    Surface,
    L2_Zone_26_Ceiling_1,
    NoSun,
    NoWind,
    ,
    4,
    27.9985,
    8.5710,
    13.0000,
    27.9985,
    5.0738,
    13.0000,
    21.1243,
    5.0738,
    13.0000,
    21.1243,
    8.5710,
    13.0000;
BuildingSurface:Detailed,
    L3_Zone_54_Floor_2,
    Floor,
    Interior Floor,
    L3_Zone_54,
    ,
    Adiabatic,
    ,
    NoSun,
    NoWind,
    ,
    4,
    28.0034,
    5.0738,
    13.0000,
    28.0034,
    5.0720,
    13.0000,
    21.1243,
    5.0720,
    13.0000,
    21.1243,
    5.0738,
    13.0000;
BuildingSurface:Detailed,
    L3_Zone_54_Floor_3,
    Floor,
    Interior Floor,
    L3_Zone_54,
    ,
    Adiabatic,
    ,
    NoSun,
    NoWind,
    ,
    4,
    28.0034,
    8.5710,
    13.0000,
    28.0034,
    5.0738,
    13.0000,
    27.9985,
    5.0738,
    13.0000,
    27.9985,
    8.5710,
    13.0000;
BuildingSurface:Detailed,
    L3_Zone_54_Roof_1,
    Roof,
    Exterior Roof,
    L3_Zone_54,
    ,
    Outdoors,
    ,
    SunExposed,
    WindExposed,
    ,
    4,
    21.1243,
    8.5710,
    16.8500,
    21.1243,
    5.0720,
    16.8500,
    28.0034,
    5.0720,
    16.8500,
    28.0034,
    8.5710,
    16.8500;
BuildingSurface:Detailed,
    L3_Zone_54_Wall_1,
    Wall,
    Exterior Wall,
    L3_Zone_54,
    ,
    Outdoors,
    ,
    SunExposed,
    WindExposed,
    ,
    4,
    21.1243,
    5.0720,
    16.8500,
    21.1243,
    5.0720,
    13.0000,
    28.0034,
    5.0720,
    13.0000,
    28.0034,
    5.0720,
    16.8500;
BuildingSurface:Detailed,
    L3_Zone_54_Wall_2,
    Wall,
    Interior Wall,
    L3_Zone_54,
    ,
    Surface,
    L3_Zone_55_Wall_5,
    NoSun,
    NoWind,
    ,
    4,
    28.0034,
    5.0720,
    16.8500,
    28.0034,
    5.0720,
    13.0000,
    28.0034,
    8.5710,
    13.0000,
    28.0034,
    8.5710,
    16.8500;
BuildingSurface:Detailed,
    L3_Zone_54_Wall_3,
    Wall,
    Interior Wall,
    L3_Zone_54,
    ,
    Surface,
    L3_Zone_47_Wall_8,
    NoSun,
    NoWind,
    ,
    4,
    28.0034,
    8.5710,
    16.8500,
    28.0034,
    8.5710,
    13.0000,
    21.1243,
    8.5710,
    13.0000,
    21.1243,
    8.5710,
    16.8500;
BuildingSurface:Detailed,
    L3_Zone_54_Wall_4,
    Wall,
    Interior Wall,
    L3_Zone_54,
    ,
    Surface,
    L3_Zone_50_Wall_2,
    NoSun,
    NoWind,
    ,
    4,
    21.1243,
    8.5710,
    16.8500,
    21.1243,
    8.5710,
    13.0000,
    21.1243,
    5.0720,
    13.0000,
    21.1243,
    5.0720,
    16.8500;
BuildingSurface:Detailed,
    L3_Zone_55_Floor_1,
    Floor,
    Interior Floor,
    L3_Zone_55,
    ,
    Surface,
    L2_Zone_40_Ceiling_2,
    NoSun,
    NoWind,
    ,
    4,
    33.0035,
    8.5710,
    13.0000,
    33.0035,
    5.0738,
    13.0000,
    28.1044,
    5.0738,
    13.0000,
    28.1044,
    8.5710,
    13.0000;
BuildingSurface:Detailed,
    L3_Zone_55_Floor_2,
    Floor,
    Interior Floor,
    L3_Zone_55,
    ,
    Adiabatic,
    ,
    NoSun,
    NoWind,
    ,
    4,
    34.5058,
    5.0738,
    13.0000,
    34.5058,
    5.0720,
    13.0000,
    28.1044,
    5.0720,
    13.0000,
    28.1044,
    5.0738,
    13.0000;
BuildingSurface:Detailed,
    L3_Zone_55_Floor_3,
    Floor,
    Exterior Floor,
    L3_Zone_55,
    ,
    Outdoors,
    ,
    SunExposed,
    WindExposed,
    ,
    4,
    34.5058,
    8.5710,
    13.0000,
    34.5058,
    5.0738,
    13.0000,
    33.0035,
    5.0738,
    13.0000,
    33.0035,
    8.5710,
    13.0000;
BuildingSurface:Detailed,
    L3_Zone_55_Roof_1,
    Roof,
    Exterior Roof,
    L3_Zone_55,
    ,
    Outdoors,
    ,
    SunExposed,
    WindExposed,
    ,
    4,
    28.1044,
    8.5710,
    16.8500,
    28.1044,
    5.0720,
    16.8500,
    34.5058,
    5.0720,
    16.8500,
    34.5058,
    8.5710,
    16.8500;
BuildingSurface:Detailed,
    L3_Zone_55_Wall_1,
    Wall,
    Exterior Wall,
    L3_Zone_55,
    ,
    Outdoors,
    ,
    SunExposed,
    WindExposed,
    ,
    4,
    34.5058,
    5.0720,
    16.8500,
    34.5058,
    5.0720,
    13.0000,
    34.5058,
    8.5710,
    13.0000,
    34.5058,
    8.5710,
    16.8500;
BuildingSurface:Detailed,
    L3_Zone_55_Wall_2,
    Wall,
    Interior Wall,
    L3_Zone_55,
    ,
    Surface,
    L3_Zone_47_Wall_11,
    NoSun,
    NoWind,
    ,
    4,
    30.5034,
    8.5710,
    16.8500,
    30.5034,
    8.5710,
    13.0000,
    28.1044,
    8.5710,
    13.0000,
    28.1044,
    8.5710,
    16.8500;
BuildingSurface:Detailed,
    L3_Zone_55_Wall_3,
    Wall,
    Interior Wall,
    L3_Zone_55,
    ,
    Adiabatic,
    ,
    NoSun,
    NoWind,
    ,
    4,
    30.6044,
    8.5710,
    16.8500,
    30.6044,
    8.5710,
    13.0000,
    30.5034,
    8.5710,
    13.0000,
    30.5034,
    8.5710,
    16.8500;
BuildingSurface:Detailed,
    L3_Zone_55_Wall_4,
    Wall,
    Interior Wall,
    L3_Zone_55,
    ,
    Surface,
    L3_Zone_56_Wall_4,
    NoSun,
    NoWind,
    ,
    4,
    34.5058,
    8.5710,
    16.8500,
    34.5058,
    8.5710,
    13.0000,
    30.6044,
    8.5710,
    13.0000,
    30.6044,
    8.5710,
    16.8500;
BuildingSurface:Detailed,
    L3_Zone_55_Wall_5,
    Wall,
    Interior Wall,
    L3_Zone_55,
    ,
    Surface,
    L3_Zone_54_Wall_2,
    NoSun,
    NoWind,
    ,
    4,
    28.1044,
    8.5710,
    16.8500,
    28.1044,
    8.5710,
    13.0000,
    28.1044,
    5.0720,
    13.0000,
    28.1044,
    5.0720,
    16.8500;
BuildingSurface:Detailed,
    L3_Zone_55_Wall_6,
    Wall,
    Exterior Wall,
    L3_Zone_55,
    ,
    Outdoors,
    ,
    SunExposed,
    WindExposed,
    ,
    4,
    28.1044,
    5.0720,
    16.8500,
    28.1044,
    5.0720,
    13.0000,
    34.5058,
    5.0720,
    13.0000,
    34.5058,
    5.0720,
    16.8500;
BuildingSurface:Detailed,
    L3_Zone_56_Floor_1,
    Floor,
    Interior Floor,
    L3_Zone_56,
    ,
    Surface,
    L2_Zone_40_Ceiling_4,
    NoSun,
    NoWind,
    ,
    4,
    33.0035,
    10.9710,
    13.0000,
    33.0035,
    8.6720,
    13.0000,
    30.6044,
    8.6720,
    13.0000,
    30.6044,
    10.9710,
    13.0000;
BuildingSurface:Detailed,
    L3_Zone_56_Floor_2,
    Floor,
    Exterior Floor,
    L3_Zone_56,
    ,
    Outdoors,
    ,
    SunExposed,
    WindExposed,
    ,
    4,
    34.5058,
    10.9710,
    13.0000,
    34.5058,
    8.6720,
    13.0000,
    33.0035,
    8.6720,
    13.0000,
    33.0035,
    10.9710,
    13.0000;
BuildingSurface:Detailed,
    L3_Zone_56_Roof_1,
    Roof,
    Exterior Roof,
    L3_Zone_56,
    ,
    Outdoors,
    ,
    SunExposed,
    WindExposed,
    ,
    4,
    30.6044,
    10.9710,
    16.8500,
    30.6044,
    8.6720,
    16.8500,
    34.5058,
    8.6720,
    16.8500,
    34.5058,
    10.9710,
    16.8500;
BuildingSurface:Detailed,
    L3_Zone_56_Wall_1,
    Wall,
    Exterior Wall,
    L3_Zone_56,
    ,
    Outdoors,
    ,
    SunExposed,
    WindExposed,
    ,
    4,
    34.5058,
    8.6720,
    16.8500,
    34.5058,
    8.6720,
    13.0000,
    34.5058,
    10.9710,
    13.0000,
    34.5058,
    10.9710,
    16.8500;
BuildingSurface:Detailed,
    L3_Zone_56_Wall_2,
    Wall,
    Interior Wall,
    L3_Zone_56,
    ,
    Surface,
    L3_Zone_57_Wall_6,
    NoSun,
    NoWind,
    ,
    4,
    34.5058,
    10.9710,
    16.8500,
    34.5058,
    10.9710,
    13.0000,
    30.6044,
    10.9710,
    13.0000,
    30.6044,
    10.9710,
    16.8500;
BuildingSurface:Detailed,
    L3_Zone_56_Wall_3,
    Wall,
    Interior Wall,
    L3_Zone_56,
    ,
    Surface,
    L3_Zone_47_Wall_12,
    NoSun,
    NoWind,
    ,
    4,
    30.6044,
    10.9710,
    16.8500,
    30.6044,
    10.9710,
    13.0000,
    30.6044,
    8.6720,
    13.0000,
    30.6044,
    8.6720,
    16.8500;
BuildingSurface:Detailed,
    L3_Zone_56_Wall_4,
    Wall,
    Interior Wall,
    L3_Zone_56,
    ,
    Surface,
    L3_Zone_55_Wall_4,
    NoSun,
    NoWind,
    ,
    4,
    30.6044,
    8.6720,
    16.8500,
    30.6044,
    8.6720,
    13.0000,
    34.5058,
    8.6720,
    13.0000,
    34.5058,
    8.6720,
    16.8500;
BuildingSurface:Detailed,
    L3_Zone_57_Floor_1,
    Floor,
    Interior Floor,
    L3_Zone_57,
    ,
    Surface,
    L2_Zone_40_Ceiling_3,
    NoSun,
    NoWind,
    ,
    4,
    33.0035,
    12.4649,
    13.0000,
    33.0035,
    11.0720,
    13.0000,
    28.1044,
    11.0720,
    13.0000,
    28.1044,
    12.4649,
    13.0000;
BuildingSurface:Detailed,
    L3_Zone_57_Floor_2,
    Floor,
    Interior Floor,
    L3_Zone_57,
    ,
    Surface,
    L2_Zone_37_Ceiling_1,
    NoSun,
    NoWind,
    ,
    4,
    30.8035,
    14.5728,
    13.0000,
    30.8035,
    12.5659,
    13.0000,
    28.1044,
    12.5659,
    13.0000,
    28.1044,
    14.5728,
    13.0000;
BuildingSurface:Detailed,
    L3_Zone_57_Floor_3,
    Floor,
    Interior Floor,
    L3_Zone_57,
    ,
    Surface,
    L2_Zone_38_Ceiling_1,
    NoSun,
    NoWind,
    ,
    4,
    32.6035,
    14.5728,
    13.0000,
    32.6035,
    12.5659,
    13.0000,
    30.9045,
    12.5659,
    13.0000,
    30.9045,
    14.5728,
    13.0000;
BuildingSurface:Detailed,
    L3_Zone_57_Floor_4,
    Floor,
    Interior Floor,
    L3_Zone_57,
    ,
    Surface,
    L2_Zone_39_Ceiling_1,
    NoSun,
    NoWind,
    ,
    4,
    34.5058,
    14.5728,
    13.0000,
    34.5058,
    12.5659,
    13.0000,
    32.7045,
    12.5659,
    13.0000,
    32.7045,
    14.5728,
    13.0000;
BuildingSurface:Detailed,
    L3_Zone_57_Floor_5,
    Floor,
    Interior Floor,
    L3_Zone_57,
    ,
    Adiabatic,
    ,
    NoSun,
    NoWind,
    ,
    4,
    34.5058,
    12.5659,
    13.0000,
    34.5058,
    12.4649,
    13.0000,
    28.1044,
    12.4649,
    13.0000,
    28.1044,
    12.5659,
    13.0000;
BuildingSurface:Detailed,
    L3_Zone_57_Floor_6,
    Floor,
    Interior Floor,
    L3_Zone_57,
    ,
    Adiabatic,
    ,
    NoSun,
    NoWind,
    ,
    4,
    30.9045,
    14.5728,
    13.0000,
    30.9045,
    12.5659,
    13.0000,
    30.8035,
    12.5659,
    13.0000,
    30.8035,
    14.5728,
    13.0000;
BuildingSurface:Detailed,
    L3_Zone_57_Floor_7,
    Floor,
    Interior Floor,
    L3_Zone_57,
    ,
    Adiabatic,
    ,
    NoSun,
    NoWind,
    ,
    4,
    32.7045,
    14.5728,
    13.0000,
    32.7045,
    12.5659,
    13.0000,
    32.6035,
    12.5659,
    13.0000,
    32.6035,
    14.5728,
    13.0000;
BuildingSurface:Detailed,
    L3_Zone_57_Floor_8,
    Floor,
    Exterior Floor,
    L3_Zone_57,
    ,
    Outdoors,
    ,
    SunExposed,
    WindExposed,
    ,
    4,
    34.5058,
    12.4649,
    13.0000,
    34.5058,
    11.0720,
    13.0000,
    33.0035,
    11.0720,
    13.0000,
    33.0035,
    12.4649,
    13.0000;
BuildingSurface:Detailed,
    L3_Zone_57_Roof_1,
    Roof,
    Exterior Roof,
    L3_Zone_57,
    ,
    Outdoors,
    ,
    SunExposed,
    WindExposed,
    ,
    4,
    28.1044,
    14.5728,
    16.8500,
    28.1044,
    11.0720,
    16.8500,
    34.5058,
    11.0720,
    16.8500,
    34.5058,
    14.5728,
    16.8500;
BuildingSurface:Detailed,
    L3_Zone_57_Wall_1,
    Wall,
    Exterior Wall,
    L3_Zone_57,
    ,
    Outdoors,
    ,
    SunExposed,
    WindExposed,
    ,
    4,
    34.5058,
    11.0720,
    16.8500,
    34.5058,
    11.0720,
    13.0000,
    34.5058,
    14.5728,
    13.0000,
    34.5058,
    14.5728,
    16.8500;
BuildingSurface:Detailed,
    L3_Zone_57_Wall_2,
    Wall,
    Exterior Wall,
    L3_Zone_57,
    ,
    Outdoors,
    ,
    SunExposed,
    WindExposed,
    ,
    4,
    34.5058,
    14.5728,
    16.8500,
    34.5058,
    14.5728,
    13.0000,
    28.1044,
    14.5728,
    13.0000,
    28.1044,
    14.5728,
    16.8500;
BuildingSurface:Detailed,
    L3_Zone_57_Wall_3,
    Wall,
    Interior Wall,
    L3_Zone_57,
    ,
    Surface,
    L3_Zone_53_Wall_4,
    NoSun,
    NoWind,
    ,
    4,
    28.1044,
    14.5728,
    16.8500,
    28.1044,
    14.5728,
    13.0000,
    28.1044,
    11.0720,
    13.0000,
    28.1044,
    11.0720,
    16.8500;
BuildingSurface:Detailed,
    L3_Zone_57_Wall_4,
    Wall,
    Interior Wall,
    L3_Zone_57,
    ,
    Surface,
    L3_Zone_47_Wall_14,
    NoSun,
    NoWind,
    ,
    4,
    28.1044,
    11.0720,
    16.8500,
    28.1044,
    11.0720,
    13.0000,
    30.5034,
    11.0720,
    13.0000,
    30.5034,
    11.0720,
    16.8500;
BuildingSurface:Detailed,
    L3_Zone_57_Wall_5,
    Wall,
    Interior Wall,
    L3_Zone_57,
    ,
    Adiabatic,
    ,
    NoSun,
    NoWind,
    ,
    4,
    30.5034,
    11.0720,
    16.8500,
    30.5034,
    11.0720,
    13.0000,
    30.6044,
    11.0720,
    13.0000,
    30.6044,
    11.0720,
    16.8500;
BuildingSurface:Detailed,
    L3_Zone_57_Wall_6,
    Wall,
    Interior Wall,
    L3_Zone_57,
    ,
    Surface,
    L3_Zone_56_Wall_2,
    NoSun,
    NoWind,
    ,
    4,
    30.6044,
    11.0720,
    16.8500,
    30.6044,
    11.0720,
    13.0000,
    34.5058,
    11.0720,
    13.0000,
    34.5058,
    11.0720,
    16.8500;
BuildingSurface:Detailed,
    L4_Zone_58_Floor_1,
    Floor,
    Interior Floor,
    L4_Zone_58,
    ,
    Surface,
    L3_Zone_45_Ceiling_1,
    NoSun,
    NoWind,
    ,
    4,
    11.4034,
    14.5728,
    17.0000,
    11.4034,
    10.6920,
    17.0000,
    7.5068,
    10.6920,
    17.0000,
    7.5068,
    14.5728,
    17.0000;
BuildingSurface:Detailed,
    L4_Zone_58_Floor_2,
    Floor,
    Interior Floor,
    L4_Zone_58,
    ,
    Surface,
    L3_Zone_47_Ceiling_1,
    NoSun,
    NoWind,
    ,
    4,
    13.8963,
    10.9710,
    17.0000,
    13.8963,
    10.6920,
    17.0000,
    11.5044,
    10.6920,
    17.0000,
    11.5044,
    10.9710,
    17.0000;
BuildingSurface:Detailed,
    L4_Zone_58_Floor_3,
    Floor,
    Interior Floor,
    L4_Zone_58,
    ,
    Surface,
    L3_Zone_46_Ceiling_1,
    NoSun,
    NoWind,
    ,
    4,
    13.8963,
    14.5728,
    17.0000,
    13.8963,
    11.0720,
    17.0000,
    11.5044,
    11.0720,
    17.0000,
    11.5044,
    14.5728,
    17.0000;
BuildingSurface:Detailed,
    L4_Zone_58_Floor_4,
    Floor,
    Interior Floor,
    L4_Zone_58,
    ,
    Adiabatic,
    ,
    NoSun,
    NoWind,
    ,
    4,
    11.5044,
    10.9710,
    17.0000,
    11.5044,
    10.6920,
    17.0000,
    11.4034,
    10.6920,
    17.0000,
    11.4034,
    10.9710,
    17.0000;
BuildingSurface:Detailed,
    L4_Zone_58_Floor_5,
    Floor,
    Interior Floor,
    L4_Zone_58,
    ,
    Adiabatic,
    ,
    NoSun,
    NoWind,
    ,
    4,
    11.5044,
    14.5728,
    17.0000,
    11.5044,
    11.0720,
    17.0000,
    11.4034,
    11.0720,
    17.0000,
    11.4034,
    14.5728,
    17.0000;
BuildingSurface:Detailed,
    L4_Zone_58_Floor_6,
    Floor,
    Interior Floor,
    L4_Zone_58,
    ,
    Adiabatic,
    ,
    NoSun,
    NoWind,
    ,
    4,
    13.8963,
    11.0720,
    17.0000,
    13.8963,
    10.9710,
    17.0000,
    11.4034,
    10.9710,
    17.0000,
    11.4034,
    11.0720,
    17.0000;
BuildingSurface:Detailed,
    L4_Zone_58_Roof_1,
    Roof,
    Exterior Roof,
    L4_Zone_58,
    ,
    Outdoors,
    ,
    SunExposed,
    WindExposed,
    ,
    4,
    7.5068,
    14.5728,
    22.1500,
    7.5068,
    10.6920,
    22.1500,
    13.8963,
    10.6920,
    22.1500,
    13.8963,
    14.5728,
    22.1500;
BuildingSurface:Detailed,
    L4_Zone_58_Wall_1,
    Wall,
    Exterior Wall,
    L4_Zone_58,
    ,
    Outdoors,
    ,
    SunExposed,
    WindExposed,
    ,
    4,
    13.8963,
    14.5728,
    22.1500,
    13.8963,
    14.5728,
    17.0000,
    7.5068,
    14.5728,
    17.0000,
    7.5068,
    14.5728,
    22.1500;
BuildingSurface:Detailed,
    L4_Zone_58_Wall_2,
    Wall,
    Exterior Wall,
    L4_Zone_58,
    ,
    Outdoors,
    ,
    SunExposed,
    WindExposed,
    ,
    4,
    7.5068,
    14.5728,
    22.1500,
    7.5068,
    14.5728,
    17.0000,
    7.5068,
    10.6920,
    17.0000,
    7.5068,
    10.6920,
    22.1500;
BuildingSurface:Detailed,
    L4_Zone_58_Wall_3,
    Wall,
    Exterior Wall,
    L4_Zone_58,
    ,
    Outdoors,
    ,
    SunExposed,
    WindExposed,
    ,
    4,
    7.5068,
    10.6920,
    22.1500,
    7.5068,
    10.6920,
    17.0000,
    13.8963,
    10.6920,
    17.0000,
    13.8963,
    10.6920,
    22.1500;
BuildingSurface:Detailed,
    L4_Zone_58_Wall_4,
    Wall,
    Interior Wall,
    L4_Zone_58,
    ,
    Surface,
    L4_Zone_60_Wall_3,
    NoSun,
    NoWind,
    ,
    4,
    13.8963,
    10.6920,
    22.1500,
    13.8963,
    10.6920,
    17.0000,
    13.8963,
    14.5728,
    17.0000,
    13.8963,
    14.5728,
    22.1500;
BuildingSurface:Detailed,
    L4_Zone_60_Floor_1,
    Floor,
    Interior Floor,
    L4_Zone_60,
    ,
    Surface,
    L3_Zone_47_Ceiling_2,
    NoSun,
    NoWind,
    ,
    4,
    21.0010,
    10.9710,
    17.0000,
    21.0010,
    8.6720,
    17.0000,
    13.9973,
    8.6720,
    17.0000,
    13.9973,
    10.9710,
    17.0000;
BuildingSurface:Detailed,
    L4_Zone_60_Floor_2,
    Floor,
    Interior Floor,
    L4_Zone_60,
    ,
    Surface,
    L3_Zone_49_Ceiling_1,
    NoSun,
    NoWind,
    ,
    4,
    17.4534,
    14.5728,
    17.0000,
    17.4534,
    11.0720,
    17.0000,
    14.0044,
    11.0720,
    17.0000,
    14.0044,
    14.5728,
    17.0000;
BuildingSurface:Detailed,
    L4_Zone_60_Floor_3,
    Floor,
    Interior Floor,
    L4_Zone_60,
    ,
    Surface,
    L3_Zone_51_Ceiling_1,
    NoSun,
    NoWind,
    ,
    4,
    19.3534,
    14.5728,
    17.0000,
    19.3534,
    11.0720,
    17.0000,
    17.5544,
    11.0720,
    17.0000,
    17.5544,
    14.5728,
    17.0000;
BuildingSurface:Detailed,
    L4_Zone_60_Floor_4,
    Floor,
    Interior Floor,
    L4_Zone_60,
    ,
    Surface,
    L3_Zone_52_Ceiling_1,
    NoSun,
    NoWind,
    ,
    4,
    21.0010,
    14.5728,
    17.0000,
    21.0010,
    11.0720,
    17.0000,
    19.4544,
    11.0720,
    17.0000,
    19.4544,
    14.5728,
    17.0000;
BuildingSurface:Detailed,
    L4_Zone_60_Floor_5,
    Floor,
    Interior Floor,
    L4_Zone_60,
    ,
    Adiabatic,
    ,
    NoSun,
    NoWind,
    ,
    4,
    14.0044,
    14.5728,
    17.0000,
    14.0044,
    11.0720,
    17.0000,
    13.9973,
    11.0720,
    17.0000,
    13.9973,
    14.5728,
    17.0000;
BuildingSurface:Detailed,
    L4_Zone_60_Floor_6,
    Floor,
    Interior Floor,
    L4_Zone_60,
    ,
    Adiabatic,
    ,
    NoSun,
    NoWind,
    ,
    4,
    21.0010,
    8.6720,
    17.0000,
    21.0010,
    8.6670,
    17.0000,
    13.9973,
    8.6670,
    17.0000,
    13.9973,
    8.6720,
    17.0000;
BuildingSurface:Detailed,
    L4_Zone_60_Floor_7,
    Floor,
    Interior Floor,
    L4_Zone_60,
    ,
    Adiabatic,
    ,
    NoSun,
    NoWind,
    ,
    4,
    21.0010,
    11.0720,
    17.0000,
    21.0010,
    10.9710,
    17.0000,
    13.9973,
    10.9710,
    17.0000,
    13.9973,
    11.0720,
    17.0000;
BuildingSurface:Detailed,
    L4_Zone_60_Floor_8,
    Floor,
    Interior Floor,
    L4_Zone_60,
    ,
    Adiabatic,
    ,
    NoSun,
    NoWind,
    ,
    4,
    17.5544,
    14.5728,
    17.0000,
    17.5544,
    11.0720,
    17.0000,
    17.4534,
    11.0720,
    17.0000,
    17.4534,
    14.5728,
    17.0000;
BuildingSurface:Detailed,
    L4_Zone_60_Floor_9,
    Floor,
    Interior Floor,
    L4_Zone_60,
    ,
    Adiabatic,
    ,
    NoSun,
    NoWind,
    ,
    4,
    19.4544,
    14.5728,
    17.0000,
    19.4544,
    11.0720,
    17.0000,
    19.3534,
    11.0720,
    17.0000,
    19.3534,
    14.5728,
    17.0000;
BuildingSurface:Detailed,
    L4_Zone_60_Roof_1,
    Roof,
    Exterior Roof,
    L4_Zone_60,
    ,
    Outdoors,
    ,
    SunExposed,
    WindExposed,
    ,
    4,
    13.9973,
    14.5728,
    22.1500,
    13.9973,
    8.6670,
    22.1500,
    21.0010,
    8.6670,
    22.1500,
    21.0010,
    14.5728,
    22.1500;
BuildingSurface:Detailed,
    L4_Zone_60_Wall_1,
    Wall,
    Exterior Wall,
    L4_Zone_60,
    ,
    Outdoors,
    ,
    SunExposed,
    WindExposed,
    ,
    4,
    21.0010,
    14.5728,
    22.1500,
    21.0010,
    14.5728,
    17.0000,
    13.9973,
    14.5728,
    17.0000,
    13.9973,
    14.5728,
    22.1500;
BuildingSurface:Detailed,
    L4_Zone_60_Wall_2,
    Wall,
    Interior Wall,
    L4_Zone_60,
    ,
    Adiabatic,
    ,
    NoSun,
    NoWind,
    ,
    4,
    13.9973,
    10.6920,
    22.1500,
    13.9973,
    10.6920,
    17.0000,
    13.9973,
    8.6670,
    17.0000,
    13.9973,
    8.6670,
    22.1500;
BuildingSurface:Detailed,
    L4_Zone_60_Wall_3,
    Wall,
    Interior Wall,
    L4_Zone_60,
    ,
    Surface,
    L4_Zone_58_Wall_4,
    NoSun,
    NoWind,
    ,
    4,
    13.9973,
    14.5728,
    22.1500,
    13.9973,
    14.5728,
    17.0000,
    13.9973,
    10.6920,
    17.0000,
    13.9973,
    10.6920,
    22.1500;
BuildingSurface:Detailed,
    L4_Zone_60_Wall_4,
    Wall,
    Interior Wall,
    L4_Zone_60,
    ,
    Surface,
    L4_Zone_61_Wall_3,
    NoSun,
    NoWind,
    ,
    4,
    13.9973,
    8.6670,
    22.1500,
    13.9973,
    8.6670,
    17.0000,
    21.0010,
    8.6670,
    17.0000,
    21.0010,
    8.6670,
    22.1500;
BuildingSurface:Detailed,
    L4_Zone_60_Wall_5,
    Wall,
    Exterior Wall,
    L4_Zone_60,
    ,
    Outdoors,
    ,
    SunExposed,
    WindExposed,
    ,
    4,
    21.0010,
    8.6670,
    22.1500,
    21.0010,
    8.6670,
    17.0000,
    21.0010,
    14.5728,
    17.0000,
    21.0010,
    14.5728,
    22.1500;
BuildingSurface:Detailed,
    L4_Zone_61_Floor_1,
    Floor,
    Interior Floor,
    L4_Zone_61,
    ,
    Surface,
    L3_Zone_50_Ceiling_1,
    NoSun,
    NoWind,
    ,
    4,
    21.0010,
    8.5660,
    17.0000,
    21.0010,
    5.0720,
    17.0000,
    14.0044,
    5.0720,
    17.0000,
    14.0044,
    8.5660,
    17.0000;
BuildingSurface:Detailed,
    L4_Zone_61_Floor_2,
    Floor,
    Interior Floor,
    L4_Zone_61,
    ,
    Adiabatic,
    ,
    NoSun,
    NoWind,
    ,
    4,
    14.0044,
    8.5660,
    17.0000,
    14.0044,
    5.0720,
    17.0000,
    13.9973,
    5.0720,
    17.0000,
    13.9973,
    8.5660,
    17.0000;
BuildingSurface:Detailed,
    L4_Zone_61_Roof_1,
    Roof,
    Exterior Roof,
    L4_Zone_61,
    ,
    Outdoors,
    ,
    SunExposed,
    WindExposed,
    ,
    4,
    13.9973,
    8.5660,
    22.1500,
    13.9973,
    5.0720,
    22.1500,
    21.0010,
    5.0720,
    22.1500,
    21.0010,
    8.5660,
    22.1500;
BuildingSurface:Detailed,
    L4_Zone_61_Wall_1,
    Wall,
    Exterior Wall,
    L4_Zone_61,
    ,
    Outdoors,
    ,
    SunExposed,
    WindExposed,
    ,
    4,
    13.9973,
    5.0720,
    22.1500,
    13.9973,
    5.0720,
    17.0000,
    21.0010,
    5.0720,
    17.0000,
    21.0010,
    5.0720,
    22.1500;
BuildingSurface:Detailed,
    L4_Zone_61_Wall_2,
    Wall,
    Exterior Wall,
    L4_Zone_61,
    ,
    Outdoors,
    ,
    SunExposed,
    WindExposed,
    ,
    4,
    21.0010,
    5.0720,
    22.1500,
    21.0010,
    5.0720,
    17.0000,
    21.0010,
    8.5660,
    17.0000,
    21.0010,
    8.5660,
    22.1500;
BuildingSurface:Detailed,
    L4_Zone_61_Wall_3,
    Wall,
    Interior Wall,
    L4_Zone_61,
    ,
    Surface,
    L4_Zone_60_Wall_4,
    NoSun,
    NoWind,
    ,
    4,
    21.0010,
    8.5660,
    22.1500,
    21.0010,
    8.5660,
    17.0000,
    13.9973,
    8.5660,
    17.0000,
    13.9973,
    8.5660,
    22.1500;
BuildingSurface:Detailed,
    L4_Zone_61_Wall_4,
    Wall,
    Exterior Wall,
    L4_Zone_61,
    ,
    Outdoors,
    ,
    SunExposed,
    WindExposed,
    ,
    4,
    13.9973,
    8.5660,
    22.1500,
    13.9973,
    8.5660,
    17.0000,
    13.9973,
    5.0720,
    17.0000,
    13.9973,
    5.0720,
    22.1500;
BuildingSurface:Detailed,
    L2_Zone_26_Floor_1,
    Floor,
    Interior Floor,
    L2_Zone_26,
    ,
    Surface,
    L1_Zone_17_Ceiling_2,
    NoSun,
    NoWind,
    ,
    4,
    27.9808,
    8.5710,
    7.0000,
    27.9808,
    5.0738,
    7.0000,
    21.1068,
    5.0738,
    7.0000,
    21.1068,
    8.5710,
    7.0000;
BuildingSurface:Detailed,
    L2_Zone_26_Floor_2,
    Floor,
    Interior Floor,
    L2_Zone_26,
    ,
    Adiabatic,
    ,
    NoSun,
    NoWind,
    ,
    4,
    27.9985,
    8.5710,
    7.0000,
    27.9985,
    5.0738,
    7.0000,
    27.9808,
    5.0738,
    7.0000,
    27.9808,
    8.5710,
    7.0000;
BuildingSurface:Detailed,
    L2_Zone_26_Ceiling_1,
    Ceiling,
    Interior Ceiling,
    L2_Zone_26,
    ,
    Surface,
    L3_Zone_54_Floor_1,
    NoSun,
    NoWind,
    ,
    4,
    21.1243,
    8.5710,
    12.8500,
    21.1243,
    5.0738,
    12.8500,
    27.9985,
    5.0738,
    12.8500,
    27.9985,
    8.5710,
    12.8500;
BuildingSurface:Detailed,
    L2_Zone_26_Roof_1,
    Roof,
    Interior Ceiling,
    L2_Zone_26,
    ,
    Adiabatic,
    ,
    NoSun,
    NoWind,
    ,
    4,
    21.1068,
    8.5710,
    12.8500,
    21.1068,
    5.0738,
    12.8500,
    21.1243,
    5.0738,
    12.8500,
    21.1243,
    8.5710,
    12.8500;
BuildingSurface:Detailed,
    L2_Zone_26_Wall_1,
    Wall,
    Exterior Wall,
    L2_Zone_26,
    ,
    Outdoors,
    ,
    SunExposed,
    WindExposed,
    ,
    4,
    21.1068,
    5.0738,
    12.8500,
    21.1068,
    5.0738,
    7.0000,
    27.9985,
    5.0738,
    7.0000,
    27.9985,
    5.0738,
    12.8500;
BuildingSurface:Detailed,
    L2_Zone_26_Wall_2,
    Wall,
    Interior Wall,
    L2_Zone_26,
    ,
    Surface,
    L2_Zone_40_Wall_8,
    NoSun,
    NoWind,
    ,
    4,
    27.9985,
    5.0738,
    12.8500,
    27.9985,
    5.0738,
    7.0000,
    27.9985,
    8.5710,
    7.0000,
    27.9985,
    8.5710,
    12.8500;
BuildingSurface:Detailed,
    L2_Zone_26_Wall_3,
    Wall,
    Interior Wall,
    L2_Zone_26,
    ,
    Surface,
    L2_Zone_30_Wall_8,
    NoSun,
    NoWind,
    ,
    4,
    27.9985,
    8.5710,
    12.8500,
    27.9985,
    8.5710,
    7.0000,
    21.1068,
    8.5710,
    7.0000,
    21.1068,
    8.5710,
    12.8500;
BuildingSurface:Detailed,
    L2_Zone_26_Wall_4,
    Wall,
    Interior Wall,
    L2_Zone_26,
    ,
    Surface,
    L2_Zone_42_Wall_4,
    NoSun,
    NoWind,
    ,
    4,
    21.1068,
    8.5710,
    12.8500,
    21.1068,
    8.5710,
    7.0000,
    21.1068,
    5.0738,
    7.0000,
    21.1068,
    5.0738,
    12.8500;
!- ======= AUTO-GENERATED FENESTRATION =======
FenestrationSurface:Detailed,
    L1_Zone_1_Window_1,
    Window,
    Exterior Window,
    L1_Zone_1_Wall_2,
    ,
    ,
    ,
    ,
    4,
    -34.4932,
    12.8728,
    4.9000,
    -34.4932,
    12.8728,
    0.9000,
    -34.4932,
    11.8728,
    0.9000,
    -34.4932,
    11.8728,
    4.9000;
FenestrationSurface:Detailed,
    L1_Zone_1_Window_2,
    Window,
    Exterior Window,
    L1_Zone_1_Wall_1,
    ,
    ,
    ,
    ,
    4,
    -32.2942,
    14.5728,
    4.9000,
    -32.2942,
    14.5728,
    0.9000,
    -33.2942,
    14.5728,
    0.9000,
    -33.2942,
    14.5728,
    4.9000;
FenestrationSurface:Detailed,
    L1_Zone_2_Window_1,
    Window,
    Exterior Window,
    L1_Zone_2_Wall_1,
    ,
    ,
    ,
    ,
    4,
    -34.4932,
    9.3538,
    4.9000,
    -34.4932,
    9.3538,
    0.9000,
    -34.4932,
    8.3538,
    0.9000,
    -34.4932,
    8.3538,
    4.9000;
FenestrationSurface:Detailed,
    L1_Zone_3_Window_1,
    Window,
    Exterior Window,
    L1_Zone_3_Wall_1,
    ,
    ,
    ,
    ,
    4,
    -29.1932,
    14.5728,
    4.9000,
    -29.1932,
    14.5728,
    0.9000,
    -30.1932,
    14.5728,
    0.9000,
    -30.1932,
    14.5728,
    4.9000;
FenestrationSurface:Detailed,
    L1_Zone_4_Window_1,
    Window,
    Exterior Window,
    L1_Zone_4_Wall_1,
    ,
    ,
    ,
    ,
    4,
    -34.4932,
    4.8737,
    4.9000,
    -34.4932,
    4.8737,
    0.9000,
    -34.4932,
    3.8737,
    0.9000,
    -34.4932,
    3.8737,
    4.9000;
FenestrationSurface:Detailed,
    L1_Zone_6_Window_1,
    Window,
    Exterior Window,
    L1_Zone_6_Wall_1,
    ,
    ,
    ,
    ,
    4,
    -34.4932,
    0.3732,
    5.0000,
    -34.4932,
    0.3732,
    1.0000,
    -34.4932,
    -0.6268,
    1.0000,
    -34.4932,
    -0.6268,
    5.0000;
FenestrationSurface:Detailed,
    L1_Zone_7_Window_1,
    Window,
    Exterior Window,
    L1_Zone_7_Wall_4,
    ,
    ,
    ,
    ,
    4,
    -34.4932,
    -3.1273,
    4.9000,
    -34.4932,
    -3.1273,
    0.9000,
    -34.4932,
    -4.1273,
    0.9000,
    -34.4932,
    -4.1273,
    4.9000;
FenestrationSurface:Detailed,
    L1_Zone_7_Window_2,
    Window,
    Exterior Window,
    L1_Zone_7_Wall_1,
    ,
    ,
    ,
    ,
    4,
    -33.2932,
    -5.8263,
    4.9000,
    -33.2932,
    -5.8263,
    0.9000,
    -32.2932,
    -5.8263,
    0.9000,
    -32.2932,
    -5.8263,
    4.9000;
FenestrationSurface:Detailed,
    L1_Zone_7_Window_3,
    Window,
    Exterior Window,
    L1_Zone_7_Wall_1,
    ,
    ,
    ,
    ,
    4,
    -30.2942,
    -5.8263,
    4.9000,
    -30.2942,
    -5.8263,
    0.9000,
    -29.2942,
    -5.8263,
    0.9000,
    -29.2942,
    -5.8263,
    4.9000;
FenestrationSurface:Detailed,
    L1_Zone_8_Door_1,
    Door,
    Exterior Door,
    L1_Zone_8_Wall_18,
    ,
    ,
    ,
    ,
    4,
    7.4058,
    -0.5072,
    5.1000,
    7.4058,
    -0.5072,
    0.0000,
    7.4058,
    4.5928,
    0.0000,
    7.4058,
    4.5928,
    5.1000;
FenestrationSurface:Detailed,
    L1_Zone_8_Window_1,
    Window,
    Exterior Window,
    L1_Zone_8_Wall_15,
    ,
    ,
    ,
    ,
    4,
    -27.2532,
    -5.8263,
    4.9000,
    -27.2532,
    -5.8263,
    0.9000,
    -26.2532,
    -5.8263,
    0.9000,
    -26.2532,
    -5.8263,
    4.9000;
FenestrationSurface:Detailed,
    L1_Zone_8_Window_2,
    Window,
    Exterior Window,
    L1_Zone_8_Wall_15,
    ,
    ,
    ,
    ,
    4,
    -24.2532,
    -5.8263,
    4.9000,
    -24.2532,
    -5.8263,
    0.9000,
    -23.2532,
    -5.8263,
    0.9000,
    -23.2532,
    -5.8263,
    4.9000;
FenestrationSurface:Detailed,
    L1_Zone_8_Window_3,
    Window,
    Exterior Window,
    L1_Zone_8_Wall_15,
    ,
    ,
    ,
    ,
    4,
    -21.2532,
    -5.8263,
    4.9000,
    -21.2532,
    -5.8263,
    0.9000,
    -20.2532,
    -5.8263,
    0.9000,
    -20.2532,
    -5.8263,
    4.9000;
FenestrationSurface:Detailed,
    L1_Zone_8_Window_4,
    Window,
    Exterior Window,
    L1_Zone_8_Wall_15,
    ,
    ,
    ,
    ,
    4,
    -18.2532,
    -5.8263,
    4.9000,
    -18.2532,
    -5.8263,
    0.9000,
    -17.2532,
    -5.8263,
    0.9000,
    -17.2532,
    -5.8263,
    4.9000;
FenestrationSurface:Detailed,
    L1_Zone_8_Window_5,
    Window,
    Exterior Window,
    L1_Zone_8_Wall_15,
    ,
    ,
    ,
    ,
    4,
    -15.2532,
    -5.8263,
    4.9000,
    -15.2532,
    -5.8263,
    0.9000,
    -14.2532,
    -5.8263,
    0.9000,
    -14.2532,
    -5.8263,
    4.9000;
FenestrationSurface:Detailed,
    L1_Zone_8_Window_6,
    Window,
    Exterior Window,
    L1_Zone_8_Wall_15,
    ,
    ,
    ,
    ,
    4,
    -12.2532,
    -5.8263,
    4.9000,
    -12.2532,
    -5.8263,
    0.9000,
    -11.2532,
    -5.8263,
    0.9000,
    -11.2532,
    -5.8263,
    4.9000;
FenestrationSurface:Detailed,
    L1_Zone_8_Window_7,
    Window,
    Exterior Window,
    L1_Zone_8_Wall_15,
    ,
    ,
    ,
    ,
    4,
    -9.2532,
    -5.8263,
    4.9000,
    -9.2532,
    -5.8263,
    0.9000,
    -8.2532,
    -5.8263,
    0.9000,
    -8.2532,
    -5.8263,
    4.9000;
FenestrationSurface:Detailed,
    L1_Zone_8_Window_8,
    Window,
    Exterior Window,
    L1_Zone_8_Wall_15,
    ,
    ,
    ,
    ,
    4,
    -6.2532,
    -5.8263,
    4.9000,
    -6.2532,
    -5.8263,
    0.9000,
    -5.2532,
    -5.8263,
    0.9000,
    -5.2532,
    -5.8263,
    4.9000;
FenestrationSurface:Detailed,
    L1_Zone_8_Window_9,
    Window,
    Exterior Window,
    L1_Zone_8_Wall_15,
    ,
    ,
    ,
    ,
    4,
    -3.2532,
    -5.8263,
    4.9000,
    -3.2532,
    -5.8263,
    0.9000,
    -2.2532,
    -5.8263,
    0.9000,
    -2.2532,
    -5.8263,
    4.9000;
FenestrationSurface:Detailed,
    L1_Zone_8_Window_10,
    Window,
    Exterior Window,
    L1_Zone_8_Wall_15,
    ,
    ,
    ,
    ,
    4,
    -0.2942,
    -5.8263,
    4.9000,
    -0.2942,
    -5.8263,
    0.9000,
    0.7058,
    -5.8263,
    0.9000,
    0.7058,
    -5.8263,
    4.9000;
FenestrationSurface:Detailed,
    L1_Zone_8_Window_11,
    Window,
    Exterior Window,
    L1_Zone_8_Wall_17,
    ,
    ,
    ,
    ,
    4,
    2.7068,
    -0.8262,
    4.9000,
    2.7068,
    -0.8262,
    0.9000,
    3.7068,
    -0.8262,
    0.9000,
    3.7068,
    -0.8262,
    4.9000;
FenestrationSurface:Detailed,
    L1_Zone_8_Window_12,
    Window,
    Exterior Window,
    L1_Zone_8_Wall_17,
    ,
    ,
    ,
    ,
    4,
    5.8058,
    -0.8262,
    4.9000,
    5.8058,
    -0.8262,
    0.9000,
    6.8058,
    -0.8262,
    0.9000,
    6.8058,
    -0.8262,
    4.9000;
FenestrationSurface:Detailed,
    L1_Zone_8_Window_13,
    Window,
    Exterior Window,
    L1_Zone_8_Wall_1,
    ,
    ,
    ,
    ,
    4,
    -11.1944,
    14.5728,
    4.9000,
    -11.1944,
    14.5728,
    0.9000,
    -12.1944,
    14.5728,
    0.9000,
    -12.1944,
    14.5728,
    4.9000;
FenestrationSurface:Detailed,
    L1_Zone_8_Window_14,
    Window,
    Exterior Window,
    L1_Zone_8_Wall_1,
    ,
    ,
    ,
    ,
    4,
    -14.1944,
    14.5728,
    4.9000,
    -14.1944,
    14.5728,
    0.9000,
    -15.1944,
    14.5728,
    0.9000,
    -15.1944,
    14.5728,
    4.9000;
FenestrationSurface:Detailed,
    L1_Zone_8_Window_15,
    Window,
    Exterior Window,
    L1_Zone_8_Wall_1,
    ,
    ,
    ,
    ,
    4,
    -17.1944,
    14.5728,
    4.9000,
    -17.1944,
    14.5728,
    0.9000,
    -18.1944,
    14.5728,
    0.9000,
    -18.1944,
    14.5728,
    4.9000;
FenestrationSurface:Detailed,
    L1_Zone_8_Window_16,
    Window,
    Exterior Window,
    L1_Zone_8_Wall_1,
    ,
    ,
    ,
    ,
    4,
    -20.1944,
    14.5728,
    4.9000,
    -20.1944,
    14.5728,
    0.9000,
    -21.1944,
    14.5728,
    0.9000,
    -21.1944,
    14.5728,
    4.9000;
FenestrationSurface:Detailed,
    L1_Zone_8_Window_17,
    Window,
    Exterior Window,
    L1_Zone_8_Wall_1,
    ,
    ,
    ,
    ,
    4,
    -23.1944,
    14.5728,
    4.9000,
    -23.1944,
    14.5728,
    0.9000,
    -24.1944,
    14.5728,
    0.9000,
    -24.1944,
    14.5728,
    4.9000;
FenestrationSurface:Detailed,
    L1_Zone_8_Window_18,
    Window,
    Exterior Window,
    L1_Zone_8_Wall_1,
    ,
    ,
    ,
    ,
    4,
    -26.1932,
    14.5728,
    4.9000,
    -26.1932,
    14.5728,
    0.9000,
    -27.1932,
    14.5728,
    0.9000,
    -27.1932,
    14.5728,
    4.9000;
FenestrationSurface:Detailed,
    L1_Zone_9_Window_1,
    Window,
    Exterior Window,
    L1_Zone_9_Wall_1,
    ,
    ,
    ,
    ,
    4,
    -5.2942,
    14.5728,
    4.9000,
    -5.2942,
    14.5728,
    0.9000,
    -6.2942,
    14.5728,
    0.9000,
    -6.2942,
    14.5728,
    4.9000;
FenestrationSurface:Detailed,
    L1_Zone_9_Window_2,
    Window,
    Exterior Window,
    L1_Zone_9_Wall_1,
    ,
    ,
    ,
    ,
    4,
    -8.2934,
    14.5728,
    4.9000,
    -8.2934,
    14.5728,
    0.9000,
    -9.2934,
    14.5728,
    0.9000,
    -9.2934,
    14.5728,
    4.9000;
FenestrationSurface:Detailed,
    L1_Zone_10_Window_1,
    Window,
    Exterior Window,
    L1_Zone_10_Wall_1,
    ,
    ,
    ,
    ,
    4,
    0.7058,
    14.5728,
    4.9000,
    0.7058,
    14.5728,
    0.9000,
    -0.2942,
    14.5728,
    0.9000,
    -0.2942,
    14.5728,
    4.9000;
FenestrationSurface:Detailed,
    L1_Zone_10_Window_2,
    Window,
    Exterior Window,
    L1_Zone_10_Wall_1,
    ,
    ,
    ,
    ,
    4,
    -2.2932,
    14.5728,
    4.9000,
    -2.2932,
    14.5728,
    0.9000,
    -3.2932,
    14.5728,
    0.9000,
    -3.2932,
    14.5728,
    4.9000;
FenestrationSurface:Detailed,
    L1_Zone_11_Window_1,
    Window,
    Exterior Window,
    L1_Zone_11_Wall_1,
    ,
    ,
    ,
    ,
    4,
    6.8058,
    14.5728,
    4.9000,
    6.8058,
    14.5728,
    0.9000,
    5.8058,
    14.5728,
    0.9000,
    5.8058,
    14.5728,
    4.9000;
FenestrationSurface:Detailed,
    L1_Zone_11_Window_2,
    Window,
    Exterior Window,
    L1_Zone_11_Wall_1,
    ,
    ,
    ,
    ,
    4,
    3.8068,
    14.5728,
    4.9000,
    3.8068,
    14.5728,
    0.9000,
    2.8068,
    14.5728,
    0.9000,
    2.8068,
    14.5728,
    4.9000;
FenestrationSurface:Detailed,
    L1_Zone_19_Window_1,
    Window,
    Exterior Window,
    L1_Zone_19_Wall_1,
    ,
    ,
    ,
    ,
    4,
    14.6808,
    5.0738,
    6.5000,
    14.6808,
    5.0738,
    0.0000,
    20.4808,
    5.0738,
    0.0000,
    20.4808,
    5.0738,
    6.5000;
FenestrationSurface:Detailed,
    L1_Zone_14_Window_1,
    Window,
    Exterior Window,
    L1_Zone_14_Wall_1,
    ,
    ,
    ,
    ,
    4,
    13.0068,
    14.5728,
    4.9000,
    13.0068,
    14.5728,
    0.9000,
    12.0068,
    14.5728,
    0.9000,
    12.0068,
    14.5728,
    4.9000;
FenestrationSurface:Detailed,
    L1_Zone_15_Window_1,
    Window,
    Exterior Window,
    L1_Zone_15_Wall_1,
    ,
    ,
    ,
    ,
    4,
    15.9818,
    14.5728,
    4.9000,
    15.9818,
    14.5728,
    0.9000,
    14.9818,
    14.5728,
    0.9000,
    14.9818,
    14.5728,
    4.9000;
FenestrationSurface:Detailed,
    L1_Zone_16_Window_1,
    Window,
    Exterior Window,
    L1_Zone_16_Wall_1,
    ,
    ,
    ,
    ,
    4,
    19.9808,
    14.5728,
    4.9000,
    19.9808,
    14.5728,
    0.9000,
    18.9808,
    14.5728,
    0.9000,
    18.9808,
    14.5728,
    4.9000;
FenestrationSurface:Detailed,
    L1_Zone_17_Door_1,
    Door,
    Exterior Door,
    L1_Zone_17_Wall_7,
    ,
    ,
    ,
    ,
    4,
    21.1418,
    5.0738,
    2.2000,
    21.1418,
    5.0738,
    0.0000,
    22.2418,
    5.0738,
    0.0000,
    22.2418,
    5.0738,
    2.2000;
FenestrationSurface:Detailed,
    L1_Zone_17_Door_2,
    Door,
    Exterior Door,
    L1_Zone_17_Wall_7,
    ,
    ,
    ,
    ,
    4,
    22.4608,
    5.0738,
    5.1000,
    22.4608,
    5.0738,
    0.0000,
    27.5608,
    5.0738,
    0.0000,
    27.5608,
    5.0738,
    5.1000;
FenestrationSurface:Detailed,
    L1_Zone_17_Window_1,
    Window,
    Exterior Window,
    L1_Zone_17_Wall_1,
    ,
    ,
    ,
    ,
    4,
    26.6808,
    14.5728,
    4.9000,
    26.6808,
    14.5728,
    0.9000,
    25.6808,
    14.5728,
    0.9000,
    25.6808,
    14.5728,
    4.9000;
FenestrationSurface:Detailed,
    L1_Zone_17_Window_2,
    Window,
    Exterior Window,
    L1_Zone_17_Wall_1,
    ,
    ,
    ,
    ,
    4,
    22.7818,
    14.5728,
    4.9000,
    22.7818,
    14.5728,
    0.9000,
    21.7818,
    14.5728,
    0.9000,
    21.7818,
    14.5728,
    4.9000;
FenestrationSurface:Detailed,
    L1_Zone_18_Door_1,
    Door,
    Exterior Door,
    L1_Zone_18_Wall_3,
    ,
    ,
    ,
    ,
    4,
    28.1818,
    5.0738,
    2.2000,
    28.1818,
    5.0738,
    0.0000,
    29.2818,
    5.0738,
    0.0000,
    29.2818,
    5.0738,
    2.2000;
FenestrationSurface:Detailed,
    L1_Zone_18_Door_2,
    Door,
    Exterior Door,
    L1_Zone_18_Wall_3,
    ,
    ,
    ,
    ,
    4,
    29.4818,
    5.0738,
    4.6000,
    29.4818,
    5.0738,
    0.0000,
    32.0818,
    5.0738,
    0.0000,
    32.0818,
    5.0738,
    4.6000;
FenestrationSurface:Detailed,
    L1_Zone_18_Window_1,
    Window,
    Exterior Window,
    L1_Zone_18_Wall_4,
    ,
    ,
    ,
    ,
    4,
    34.5058,
    6.3738,
    4.9000,
    34.5058,
    6.3738,
    0.9000,
    34.5058,
    7.3738,
    0.9000,
    34.5058,
    7.3738,
    4.9000;
FenestrationSurface:Detailed,
    L1_Zone_18_Window_2,
    Window,
    Exterior Window,
    L1_Zone_18_Wall_4,
    ,
    ,
    ,
    ,
    4,
    34.5058,
    9.2738,
    4.9000,
    34.5058,
    9.2738,
    0.9000,
    34.5058,
    10.2738,
    0.9000,
    34.5058,
    10.2738,
    4.9000;
FenestrationSurface:Detailed,
    L1_Zone_18_Window_3,
    Window,
    Exterior Window,
    L1_Zone_18_Wall_4,
    ,
    ,
    ,
    ,
    4,
    34.5058,
    12.3728,
    4.9000,
    34.5058,
    12.3728,
    0.9000,
    34.5058,
    13.3728,
    0.9000,
    34.5058,
    13.3728,
    4.9000;
FenestrationSurface:Detailed,
    L1_Zone_18_Window_4,
    Window,
    Exterior Window,
    L1_Zone_18_Wall_1,
    ,
    ,
    ,
    ,
    4,
    33.7058,
    14.5728,
    4.9000,
    33.7058,
    14.5728,
    0.9000,
    32.7058,
    14.5728,
    0.9000,
    32.7058,
    14.5728,
    4.9000;
FenestrationSurface:Detailed,
    L1_Zone_18_Window_5,
    Window,
    Exterior Window,
    L1_Zone_18_Wall_1,
    ,
    ,
    ,
    ,
    4,
    29.7818,
    14.5728,
    4.9000,
    29.7818,
    14.5728,
    0.9000,
    28.7818,
    14.5728,
    0.9000,
    28.7818,
    14.5728,
    4.9000;
FenestrationSurface:Detailed,
    L1_Zone_12_Door_1,
    Door,
    Exterior Door,
    L1_Zone_12_Wall_1,
    ,
    ,
    ,
    ,
    4,
    8.4357,
    5.0738,
    5.1000,
    8.4357,
    5.0738,
    0.0000,
    13.5357,
    5.0738,
    0.0000,
    13.5357,
    5.0738,
    5.1000;
FenestrationSurface:Detailed,
    L2_Zone_20_Window_1,
    Window,
    Exterior Window,
    L2_Zone_20_Wall_1,
    ,
    ,
    ,
    ,
    4,
    -34.4932,
    12.8728,
    10.0000,
    -34.4932,
    12.8728,
    8.0000,
    -34.4932,
    11.8728,
    8.0000,
    -34.4932,
    11.8728,
    10.0000;
FenestrationSurface:Detailed,
    L2_Zone_20_Window_2,
    Window,
    Exterior Window,
    L2_Zone_20_Wall_1,
    ,
    ,
    ,
    ,
    4,
    -34.4932,
    9.3538,
    10.0000,
    -34.4932,
    9.3538,
    8.0000,
    -34.4932,
    8.3538,
    8.0000,
    -34.4932,
    8.3538,
    10.0000;
FenestrationSurface:Detailed,
    L2_Zone_20_Window_3,
    Window,
    Exterior Window,
    L2_Zone_20_Wall_4,
    ,
    ,
    ,
    ,
    4,
    -32.2942,
    14.5728,
    10.0000,
    -32.2942,
    14.5728,
    8.0000,
    -33.2942,
    14.5728,
    8.0000,
    -33.2942,
    14.5728,
    10.0000;
FenestrationSurface:Detailed,
    L2_Zone_21_Window_1,
    Window,
    Exterior Window,
    L2_Zone_21_Wall_14,
    ,
    ,
    ,
    ,
    4,
    -34.4932,
    4.8737,
    10.0000,
    -34.4932,
    4.8737,
    8.0000,
    -34.4932,
    3.8737,
    8.0000,
    -34.4932,
    3.8737,
    10.0000;
FenestrationSurface:Detailed,
    L2_Zone_21_Window_2,
    Window,
    Exterior Window,
    L2_Zone_21_Wall_14,
    ,
    ,
    ,
    ,
    4,
    -34.4932,
    -3.1273,
    10.0000,
    -34.4932,
    -3.1273,
    8.0000,
    -34.4932,
    -4.1273,
    8.0000,
    -34.4932,
    -4.1273,
    10.0000;
FenestrationSurface:Detailed,
    L2_Zone_21_Window_3,
    Window,
    Exterior Window,
    L2_Zone_21_Wall_1,
    ,
    ,
    ,
    ,
    4,
    -33.2932,
    -5.8263,
    10.0000,
    -33.2932,
    -5.8263,
    8.0000,
    -32.2932,
    -5.8263,
    8.0000,
    -32.2932,
    -5.8263,
    10.0000;
FenestrationSurface:Detailed,
    L2_Zone_21_Window_4,
    Window,
    Exterior Window,
    L2_Zone_21_Wall_1,
    ,
    ,
    ,
    ,
    4,
    -30.2942,
    -5.8263,
    10.0000,
    -30.2942,
    -5.8263,
    8.0000,
    -29.2942,
    -5.8263,
    8.0000,
    -29.2942,
    -5.8263,
    10.0000;
FenestrationSurface:Detailed,
    L2_Zone_21_Window_5,
    Window,
    Exterior Window,
    L2_Zone_21_Wall_1,
    ,
    ,
    ,
    ,
    4,
    -27.2532,
    -5.8263,
    10.0000,
    -27.2532,
    -5.8263,
    8.0000,
    -26.2532,
    -5.8263,
    8.0000,
    -26.2532,
    -5.8263,
    10.0000;
FenestrationSurface:Detailed,
    L2_Zone_21_Window_6,
    Window,
    Exterior Window,
    L2_Zone_21_Wall_1,
    ,
    ,
    ,
    ,
    4,
    -24.2532,
    -5.8263,
    10.0000,
    -24.2532,
    -5.8263,
    8.0000,
    -23.2532,
    -5.8263,
    8.0000,
    -23.2532,
    -5.8263,
    10.0000;
FenestrationSurface:Detailed,
    L2_Zone_21_Window_7,
    Window,
    Exterior Window,
    L2_Zone_21_Wall_1,
    ,
    ,
    ,
    ,
    4,
    -21.2532,
    -5.8263,
    10.0000,
    -21.2532,
    -5.8263,
    8.0000,
    -20.2532,
    -5.8263,
    8.0000,
    -20.2532,
    -5.8263,
    10.0000;
FenestrationSurface:Detailed,
    L2_Zone_21_Window_8,
    Window,
    Exterior Window,
    L2_Zone_21_Wall_1,
    ,
    ,
    ,
    ,
    4,
    -18.2532,
    -5.8263,
    10.0000,
    -18.2532,
    -5.8263,
    8.0000,
    -17.2532,
    -5.8263,
    8.0000,
    -17.2532,
    -5.8263,
    10.0000;
FenestrationSurface:Detailed,
    L2_Zone_21_Window_9,
    Window,
    Exterior Window,
    L2_Zone_21_Wall_1,
    ,
    ,
    ,
    ,
    4,
    -15.2532,
    -5.8263,
    10.0000,
    -15.2532,
    -5.8263,
    8.0000,
    -14.2532,
    -5.8263,
    8.0000,
    -14.2532,
    -5.8263,
    10.0000;
FenestrationSurface:Detailed,
    L2_Zone_21_Window_10,
    Window,
    Exterior Window,
    L2_Zone_21_Wall_1,
    ,
    ,
    ,
    ,
    4,
    -12.2532,
    -5.8263,
    10.0000,
    -12.2532,
    -5.8263,
    8.0000,
    -11.2532,
    -5.8263,
    8.0000,
    -11.2532,
    -5.8263,
    10.0000;
FenestrationSurface:Detailed,
    L2_Zone_21_Window_11,
    Window,
    Exterior Window,
    L2_Zone_21_Wall_1,
    ,
    ,
    ,
    ,
    4,
    -9.2532,
    -5.8263,
    10.0000,
    -9.2532,
    -5.8263,
    8.0000,
    -8.2532,
    -5.8263,
    8.0000,
    -8.2532,
    -5.8263,
    10.0000;
FenestrationSurface:Detailed,
    L2_Zone_21_Window_12,
    Window,
    Exterior Window,
    L2_Zone_21_Wall_1,
    ,
    ,
    ,
    ,
    4,
    -6.2532,
    -5.8263,
    10.0000,
    -6.2532,
    -5.8263,
    8.0000,
    -5.2532,
    -5.8263,
    8.0000,
    -5.2532,
    -5.8263,
    10.0000;
FenestrationSurface:Detailed,
    L2_Zone_21_Window_13,
    Window,
    Exterior Window,
    L2_Zone_21_Wall_14,
    ,
    ,
    ,
    ,
    4,
    -34.4932,
    0.3732,
    10.0000,
    -34.4932,
    0.3732,
    8.0000,
    -34.4932,
    -0.6268,
    8.0000,
    -34.4932,
    -0.6268,
    10.0000;
FenestrationSurface:Detailed,
    L2_Zone_21_Window_14,
    Window,
    Exterior Window,
    L2_Zone_21_Wall_9,
    ,
    ,
    ,
    ,
    4,
    -5.2942,
    14.5728,
    10.0000,
    -5.2942,
    14.5728,
    8.0000,
    -6.2942,
    14.5728,
    8.0000,
    -6.2942,
    14.5728,
    10.0000;
FenestrationSurface:Detailed,
    L2_Zone_21_Window_15,
    Window,
    Exterior Window,
    L2_Zone_21_Wall_9,
    ,
    ,
    ,
    ,
    4,
    -8.2934,
    14.5728,
    10.0000,
    -8.2934,
    14.5728,
    8.0000,
    -9.2934,
    14.5728,
    8.0000,
    -9.2934,
    14.5728,
    10.0000;
FenestrationSurface:Detailed,
    L2_Zone_21_Window_16,
    Window,
    Exterior Window,
    L2_Zone_21_Wall_9,
    ,
    ,
    ,
    ,
    4,
    -11.1944,
    14.5728,
    10.0000,
    -11.1944,
    14.5728,
    8.0000,
    -12.1944,
    14.5728,
    8.0000,
    -12.1944,
    14.5728,
    10.0000;
FenestrationSurface:Detailed,
    L2_Zone_21_Window_17,
    Window,
    Exterior Window,
    L2_Zone_21_Wall_9,
    ,
    ,
    ,
    ,
    4,
    -14.1944,
    14.5728,
    10.0000,
    -14.1944,
    14.5728,
    8.0000,
    -15.1944,
    14.5728,
    8.0000,
    -15.1944,
    14.5728,
    10.0000;
FenestrationSurface:Detailed,
    L2_Zone_21_Window_18,
    Window,
    Exterior Window,
    L2_Zone_21_Wall_9,
    ,
    ,
    ,
    ,
    4,
    -17.1944,
    14.5728,
    10.0000,
    -17.1944,
    14.5728,
    8.0000,
    -18.1944,
    14.5728,
    8.0000,
    -18.1944,
    14.5728,
    10.0000;
FenestrationSurface:Detailed,
    L2_Zone_21_Window_19,
    Window,
    Exterior Window,
    L2_Zone_21_Wall_9,
    ,
    ,
    ,
    ,
    4,
    -20.1944,
    14.5728,
    10.0000,
    -20.1944,
    14.5728,
    8.0000,
    -21.1944,
    14.5728,
    8.0000,
    -21.1944,
    14.5728,
    10.0000;
FenestrationSurface:Detailed,
    L2_Zone_21_Window_20,
    Window,
    Exterior Window,
    L2_Zone_21_Wall_9,
    ,
    ,
    ,
    ,
    4,
    -23.1944,
    14.5728,
    10.0000,
    -23.1944,
    14.5728,
    8.0000,
    -24.1944,
    14.5728,
    8.0000,
    -24.1944,
    14.5728,
    10.0000;
FenestrationSurface:Detailed,
    L2_Zone_21_Window_21,
    Window,
    Exterior Window,
    L2_Zone_21_Wall_9,
    ,
    ,
    ,
    ,
    4,
    -26.1932,
    14.5728,
    10.0000,
    -26.1932,
    14.5728,
    8.0000,
    -27.1932,
    14.5728,
    8.0000,
    -27.1932,
    14.5728,
    10.0000;
FenestrationSurface:Detailed,
    L2_Zone_21_Window_22,
    Window,
    Exterior Window,
    L2_Zone_21_Wall_9,
    ,
    ,
    ,
    ,
    4,
    -29.1932,
    14.5728,
    10.0000,
    -29.1932,
    14.5728,
    8.0000,
    -30.1932,
    14.5728,
    8.0000,
    -30.1932,
    14.5728,
    10.0000;
FenestrationSurface:Detailed,
    L2_Zone_22_Window_1,
    Window,
    Exterior Window,
    L2_Zone_22_Wall_6,
    ,
    ,
    ,
    ,
    4,
    -2.2932,
    14.5728,
    10.0000,
    -2.2932,
    14.5728,
    8.0000,
    -3.2932,
    14.5728,
    8.0000,
    -3.2932,
    14.5728,
    10.0000;
FenestrationSurface:Detailed,
    L2_Zone_25_Window_1,
    Window,
    Exterior Window,
    L2_Zone_25_Wall_3,
    ,
    ,
    ,
    ,
    4,
    -3.2532,
    -5.8263,
    12.0000,
    -3.2532,
    -5.8263,
    8.0000,
    -2.2532,
    -5.8263,
    8.0000,
    -2.2532,
    -5.8263,
    12.0000;
FenestrationSurface:Detailed,
    L2_Zone_25_Window_2,
    Window,
    Exterior Window,
    L2_Zone_25_Wall_3,
    ,
    ,
    ,
    ,
    4,
    -0.2942,
    -5.8263,
    12.0000,
    -0.2942,
    -5.8263,
    8.0000,
    0.7058,
    -5.8263,
    8.0000,
    0.7058,
    -5.8263,
    12.0000;
FenestrationSurface:Detailed,
    L2_Zone_23_Window_1,
    Window,
    Exterior Window,
    L2_Zone_23_Wall_3,
    ,
    ,
    ,
    ,
    4,
    0.7058,
    14.5728,
    10.0000,
    0.7058,
    14.5728,
    8.0000,
    -0.2942,
    14.5728,
    8.0000,
    -0.2942,
    14.5728,
    10.0000;
FenestrationSurface:Detailed,
    L2_Zone_27_Door_1,
    Door,
    Exterior Door,
    L2_Zone_27_Wall_9,
    ,
    ,
    ,
    ,
    4,
    6.7867,
    13.0800,
    9.1000,
    6.7867,
    13.0800,
    7.0000,
    5.7867,
    13.0800,
    7.0000,
    5.7867,
    13.0800,
    9.1000;
FenestrationSurface:Detailed,
    L2_Zone_28_Window_1,
    Window,
    Exterior Window,
    L2_Zone_28_Wall_3,
    ,
    ,
    ,
    ,
    4,
    2.7068,
    -0.8262,
    10.0000,
    2.7068,
    -0.8262,
    8.0000,
    3.7068,
    -0.8262,
    8.0000,
    3.7068,
    -0.8262,
    10.0000;
FenestrationSurface:Detailed,
    L2_Zone_28_Window_2,
    Window,
    Exterior Window,
    L2_Zone_28_Wall_3,
    ,
    ,
    ,
    ,
    4,
    5.8058,
    -0.8262,
    10.0000,
    5.8058,
    -0.8262,
    8.0000,
    6.8058,
    -0.8262,
    8.0000,
    6.8058,
    -0.8262,
    10.0000;
FenestrationSurface:Detailed,
    L2_Zone_29_Window_1,
    Window,
    Exterior Window,
    L2_Zone_29_Wall_6,
    ,
    ,
    ,
    ,
    4,
    8.7468,
    -5.8262,
    10.0000,
    8.7468,
    -5.8262,
    8.0000,
    9.7468,
    -5.8262,
    8.0000,
    9.7468,
    -5.8262,
    10.0000;
FenestrationSurface:Detailed,
    L2_Zone_29_Window_2,
    Window,
    Exterior Window,
    L2_Zone_29_Wall_6,
    ,
    ,
    ,
    ,
    4,
    10.7468,
    -5.8262,
    10.0000,
    10.7468,
    -5.8262,
    8.0000,
    11.7468,
    -5.8262,
    8.0000,
    11.7468,
    -5.8262,
    10.0000;
FenestrationSurface:Detailed,
    L2_Zone_29_Window_3,
    Window,
    Exterior Window,
    L2_Zone_29_Wall_6,
    ,
    ,
    ,
    ,
    4,
    12.7668,
    -5.8262,
    10.0000,
    12.7668,
    -5.8262,
    8.0000,
    13.7668,
    -5.8262,
    8.0000,
    13.7668,
    -5.8262,
    10.0000;
FenestrationSurface:Detailed,
    L2_Zone_29_Window_4,
    Window,
    Exterior Window,
    L2_Zone_29_Wall_6,
    ,
    ,
    ,
    ,
    4,
    14.7668,
    -5.8262,
    10.0000,
    14.7668,
    -5.8262,
    8.0000,
    15.7668,
    -5.8262,
    8.0000,
    15.7668,
    -5.8262,
    10.0000;
FenestrationSurface:Detailed,
    L2_Zone_32_Window_1,
    Window,
    Exterior Window,
    L2_Zone_32_Wall_4,
    ,
    ,
    ,
    ,
    4,
    13.0068,
    14.5728,
    10.0000,
    13.0068,
    14.5728,
    8.0000,
    12.0068,
    14.5728,
    8.0000,
    12.0068,
    14.5728,
    10.0000;
FenestrationSurface:Detailed,
    L2_Zone_34_Window_1,
    Window,
    Exterior Window,
    L2_Zone_34_Wall_3,
    ,
    ,
    ,
    ,
    4,
    15.9818,
    14.5728,
    10.0000,
    15.9818,
    14.5728,
    8.0000,
    14.9818,
    14.5728,
    8.0000,
    14.9818,
    14.5728,
    10.0000;
FenestrationSurface:Detailed,
    L2_Zone_35_Window_1,
    Window,
    Exterior Window,
    L2_Zone_35_Wall_3,
    ,
    ,
    ,
    ,
    4,
    19.9808,
    14.5728,
    10.0000,
    19.9808,
    14.5728,
    8.0000,
    18.9808,
    14.5728,
    8.0000,
    18.9808,
    14.5728,
    10.0000;
FenestrationSurface:Detailed,
    L2_Zone_36_Window_1,
    Window,
    Exterior Window,
    L2_Zone_36_Wall_5,
    ,
    ,
    ,
    ,
    4,
    26.6808,
    14.5728,
    10.0000,
    26.6808,
    14.5728,
    8.0000,
    25.6808,
    14.5728,
    8.0000,
    25.6808,
    14.5728,
    10.0000;
FenestrationSurface:Detailed,
    L2_Zone_36_Window_2,
    Window,
    Exterior Window,
    L2_Zone_36_Wall_5,
    ,
    ,
    ,
    ,
    4,
    22.7818,
    14.5728,
    10.0000,
    22.7818,
    14.5728,
    8.0000,
    21.7818,
    14.5728,
    8.0000,
    21.7818,
    14.5728,
    10.0000;
FenestrationSurface:Detailed,
    L2_Zone_37_Window_1,
    Window,
    Exterior Window,
    L2_Zone_37_Wall_4,
    ,
    ,
    ,
    ,
    4,
    29.7818,
    14.5728,
    10.0000,
    29.7818,
    14.5728,
    8.0000,
    28.7818,
    14.5728,
    8.0000,
    28.7818,
    14.5728,
    10.0000;
FenestrationSurface:Detailed,
    L2_Zone_39_Window_1,
    Window,
    Exterior Window,
    L2_Zone_39_Wall_2,
    ,
    ,
    ,
    ,
    4,
    33.7058,
    14.5728,
    10.0000,
    33.7058,
    14.5728,
    8.0000,
    32.7058,
    14.5728,
    8.0000,
    32.7058,
    14.5728,
    10.0000;
FenestrationSurface:Detailed,
    L2_Zone_40_Door_1,
    Door,
    Exterior Door,
    L2_Zone_40_Wall_2,
    ,
    ,
    ,
    ,
    4,
    33.0035,
    11.3149,
    9.1000,
    33.0035,
    11.3149,
    7.0000,
    33.0035,
    12.3149,
    7.0000,
    33.0035,
    12.3149,
    9.1000;
FenestrationSurface:Detailed,
    L2_Zone_40_Window_1,
    Window,
    Exterior Window,
    L2_Zone_40_Wall_1,
    ,
    ,
    ,
    ,
    4,
    29.2445,
    5.0738,
    10.0000,
    29.2445,
    5.0738,
    8.0000,
    30.2445,
    5.0738,
    8.0000,
    30.2445,
    5.0738,
    10.0000;
FenestrationSurface:Detailed,
    L2_Zone_40_Window_2,
    Window,
    Exterior Window,
    L2_Zone_40_Wall_1,
    ,
    ,
    ,
    ,
    4,
    31.2645,
    5.0738,
    10.0000,
    31.2645,
    5.0738,
    8.0000,
    32.2645,
    5.0738,
    8.0000,
    32.2645,
    5.0738,
    10.0000;
FenestrationSurface:Detailed,
    L2_Zone_40_Window_3,
    Window,
    Exterior Window,
    L2_Zone_40_Wall_2,
    ,
    ,
    ,
    ,
    4,
    33.0035,
    5.1538,
    10.1000,
    33.0035,
    5.1538,
    7.1500,
    33.0035,
    11.1538,
    7.1500,
    33.0035,
    11.1538,
    10.1000;
FenestrationSurface:Detailed,
    L2_Zone_43_Window_1,
    Window,
    Exterior Window,
    L2_Zone_43_Wall_4,
    ,
    ,
    ,
    ,
    4,
    21.0058,
    -1.2407,
    12.8500,
    21.0058,
    -1.2407,
    7.1500,
    21.0058,
    4.7593,
    7.1500,
    21.0058,
    4.7593,
    12.8500;
FenestrationSurface:Detailed,
    L2_Zone_44_Window_1,
    Window,
    Exterior Window,
    L2_Zone_44_Wall_1,
    ,
    ,
    ,
    ,
    4,
    17.3552,
    -5.8262,
    10.0000,
    17.3552,
    -5.8262,
    8.0000,
    18.3552,
    -5.8262,
    8.0000,
    18.3552,
    -5.8262,
    10.0000;
FenestrationSurface:Detailed,
    L2_Zone_44_Window_2,
    Window,
    Exterior Window,
    L2_Zone_44_Wall_1,
    ,
    ,
    ,
    ,
    4,
    19.3552,
    -5.8262,
    10.0000,
    19.3552,
    -5.8262,
    8.0000,
    20.3552,
    -5.8262,
    8.0000,
    20.3552,
    -5.8262,
    10.0000;
FenestrationSurface:Detailed,
    L2_Zone_44_Window_3,
    Window,
    Exterior Window,
    L2_Zone_44_Wall_2,
    ,
    ,
    ,
    ,
    4,
    21.0058,
    -5.5707,
    12.8500,
    21.0058,
    -5.5707,
    7.1500,
    21.0058,
    -1.5707,
    7.1500,
    21.0058,
    -1.5707,
    12.8500;
FenestrationSurface:Detailed,
    L3_Zone_46_Window_1,
    Window,
    Exterior Window,
    L3_Zone_46_Wall_1,
    ,
    ,
    ,
    ,
    4,
    13.0068,
    14.5728,
    16.0000,
    13.0068,
    14.5728,
    14.0000,
    12.0068,
    14.5728,
    14.0000,
    12.0068,
    14.5728,
    16.0000;
FenestrationSurface:Detailed,
    L3_Zone_47_Window_1,
    Window,
    Exterior Window,
    L3_Zone_47_Wall_1,
    ,
    ,
    ,
    ,
    4,
    8.1068,
    5.0720,
    16.0000,
    8.1068,
    5.0720,
    14.0000,
    9.1068,
    5.0720,
    14.0000,
    9.1068,
    5.0720,
    16.0000;
FenestrationSurface:Detailed,
    L3_Zone_47_Window_2,
    Window,
    Exterior Window,
    L3_Zone_47_Wall_1,
    ,
    ,
    ,
    ,
    4,
    10.1068,
    5.0720,
    16.0000,
    10.1068,
    5.0720,
    14.0000,
    11.1068,
    5.0720,
    14.0000,
    11.1068,
    5.0720,
    16.0000;
FenestrationSurface:Detailed,
    L3_Zone_47_Window_3,
    Window,
    Exterior Window,
    L3_Zone_47_Wall_1,
    ,
    ,
    ,
    ,
    4,
    12.0068,
    5.0720,
    16.0000,
    12.0068,
    5.0720,
    14.0000,
    13.0068,
    5.0720,
    14.0000,
    13.0068,
    5.0720,
    16.0000;
FenestrationSurface:Detailed,
    L3_Zone_49_Window_1,
    Window,
    Exterior Window,
    L3_Zone_49_Wall_1,
    ,
    ,
    ,
    ,
    4,
    16.0044,
    14.5728,
    16.0000,
    16.0044,
    14.5728,
    14.0000,
    15.0044,
    14.5728,
    14.0000,
    15.0044,
    14.5728,
    16.0000;
FenestrationSurface:Detailed,
    L3_Zone_50_Window_1,
    Window,
    Exterior Window,
    L3_Zone_50_Wall_1,
    ,
    ,
    ,
    ,
    4,
    14.5808,
    5.0720,
    16.7100,
    14.5808,
    5.0720,
    13.1100,
    20.5808,
    5.0720,
    13.1100,
    20.5808,
    5.0720,
    16.7100;
FenestrationSurface:Detailed,
    L3_Zone_51_Window_1,
    Window,
    Exterior Window,
    L3_Zone_51_Wall_1,
    ,
    ,
    ,
    ,
    4,
    19.1334,
    14.5728,
    16.0000,
    19.1334,
    14.5728,
    14.0000,
    18.1334,
    14.5728,
    14.0000,
    18.1334,
    14.5728,
    16.0000;
FenestrationSurface:Detailed,
    L3_Zone_53_Window_1,
    Window,
    Exterior Window,
    L3_Zone_53_Wall_1,
    ,
    ,
    ,
    ,
    4,
    26.6808,
    14.5728,
    16.0000,
    26.6808,
    14.5728,
    14.0000,
    25.6808,
    14.5728,
    14.0000,
    25.6808,
    14.5728,
    16.0000;
FenestrationSurface:Detailed,
    L3_Zone_53_Window_2,
    Window,
    Exterior Window,
    L3_Zone_53_Wall_1,
    ,
    ,
    ,
    ,
    4,
    22.7818,
    14.5728,
    16.0000,
    22.7818,
    14.5728,
    14.0000,
    21.7818,
    14.5728,
    14.0000,
    21.7818,
    14.5728,
    16.0000;
FenestrationSurface:Detailed,
    L3_Zone_54_Window_1,
    Window,
    Exterior Window,
    L3_Zone_54_Wall_1,
    ,
    ,
    ,
    ,
    4,
    22.2373,
    5.0720,
    16.0000,
    22.2373,
    5.0720,
    14.0000,
    23.2373,
    5.0720,
    14.0000,
    23.2373,
    5.0720,
    16.0000;
FenestrationSurface:Detailed,
    L3_Zone_54_Window_2,
    Window,
    Exterior Window,
    L3_Zone_54_Wall_1,
    ,
    ,
    ,
    ,
    4,
    25.3034,
    5.0720,
    16.0000,
    25.3034,
    5.0720,
    14.0000,
    26.3034,
    5.0720,
    14.0000,
    26.3034,
    5.0720,
    16.0000;
FenestrationSurface:Detailed,
    L3_Zone_55_Window_1,
    Window,
    Exterior Window,
    L3_Zone_55_Wall_6,
    ,
    ,
    ,
    ,
    4,
    29.2644,
    5.0720,
    16.0000,
    29.2644,
    5.0720,
    14.0000,
    30.2644,
    5.0720,
    14.0000,
    30.2644,
    5.0720,
    16.0000;
FenestrationSurface:Detailed,
    L3_Zone_55_Window_2,
    Window,
    Exterior Window,
    L3_Zone_55_Wall_6,
    ,
    ,
    ,
    ,
    4,
    31.2644,
    5.0720,
    16.0000,
    31.2644,
    5.0720,
    14.0000,
    32.2644,
    5.0720,
    14.0000,
    32.2644,
    5.0720,
    16.0000;
FenestrationSurface:Detailed,
    L3_Zone_55_Window_3,
    Window,
    Exterior Window,
    L3_Zone_55_Wall_1,
    ,
    ,
    ,
    ,
    4,
    34.5058,
    6.3215,
    16.0000,
    34.5058,
    6.3215,
    14.0000,
    34.5058,
    7.3215,
    14.0000,
    34.5058,
    7.3215,
    16.0000;
FenestrationSurface:Detailed,
    L3_Zone_57_Window_1,
    Window,
    Exterior Window,
    L3_Zone_57_Wall_2,
    ,
    ,
    ,
    ,
    4,
    33.7058,
    14.5728,
    16.0000,
    33.7058,
    14.5728,
    14.0000,
    32.7058,
    14.5728,
    14.0000,
    32.7058,
    14.5728,
    16.0000;
FenestrationSurface:Detailed,
    L3_Zone_57_Window_2,
    Window,
    Exterior Window,
    L3_Zone_57_Wall_2,
    ,
    ,
    ,
    ,
    4,
    29.7818,
    14.5728,
    16.0000,
    29.7818,
    14.5728,
    14.0000,
    28.7818,
    14.5728,
    14.0000,
    28.7818,
    14.5728,
    16.0000;
FenestrationSurface:Detailed,
    L4_Zone_58_Door_1,
    Door,
    Exterior Door,
    L4_Zone_58_Wall_3,
    ,
    ,
    ,
    ,
    4,
    11.4010,
    10.6920,
    19.1000,
    11.4010,
    10.6920,
    17.0000,
    13.3010,
    10.6920,
    17.0000,
    13.3010,
    10.6920,
    19.1000;
FenestrationSurface:Detailed,
    L4_Zone_58_Window_1,
    Window,
    Exterior Window,
    L4_Zone_58_Wall_1,
    ,
    ,
    ,
    ,
    4,
    13.0068,
    14.5728,
    20.0000,
    13.0068,
    14.5728,
    18.0000,
    12.0068,
    14.5728,
    18.0000,
    12.0068,
    14.5728,
    20.0000;
FenestrationSurface:Detailed,
    L4_Zone_60_Door_1,
    Door,
    Exterior Door,
    L4_Zone_60_Wall_5,
    ,
    ,
    ,
    ,
    4,
    21.0010,
    9.0861,
    19.1000,
    21.0010,
    9.0861,
    17.0000,
    21.0010,
    10.9861,
    17.0000,
    21.0010,
    10.9861,
    19.1000;
FenestrationSurface:Detailed,
    L4_Zone_60_Window_1,
    Window,
    Exterior Window,
    L4_Zone_60_Wall_1,
    ,
    ,
    ,
    ,
    4,
    16.0044,
    14.5728,
    20.0000,
    16.0044,
    14.5728,
    18.0000,
    15.0044,
    14.5728,
    18.0000,
    15.0044,
    14.5728,
    20.0000;
FenestrationSurface:Detailed,
    L4_Zone_60_Window_2,
    Window,
    Exterior Window,
    L4_Zone_60_Wall_1,
    ,
    ,
    ,
    ,
    4,
    19.1334,
    14.5728,
    20.0000,
    19.1334,
    14.5728,
    18.0000,
    18.1334,
    14.5728,
    18.0000,
    18.1334,
    14.5728,
    20.0000;
FenestrationSurface:Detailed,
    L4_Zone_61_Door_1,
    Door,
    Exterior Door,
    L4_Zone_61_Wall_4,
    ,
    ,
    ,
    ,
    4,
    13.9973,
    7.9470,
    19.1000,
    13.9973,
    7.9470,
    17.0000,
    13.9973,
    6.0470,
    17.0000,
    13.9973,
    6.0470,
    19.1000;
FenestrationSurface:Detailed,
    L4_Zone_61_Window_1,
    Window,
    Exterior Window,
    L4_Zone_61_Wall_1,
    ,
    ,
    ,
    ,
    4,
    14.5808,
    5.0720,
    20.1500,
    14.5808,
    5.0720,
    17.2000,
    20.5808,
    5.0720,
    17.2000,
    20.5808,
    5.0720,
    20.1500;
FenestrationSurface:Detailed,
    L2_Zone_26_Window_1,
    Window,
    Exterior Window,
    L2_Zone_26_Wall_1,
    ,
    ,
    ,
    ,
    4,
    22.2468,
    5.0738,
    10.0000,
    22.2468,
    5.0738,
    8.0000,
    23.2468,
    5.0738,
    8.0000,
    23.2468,
    5.0738,
    10.0000;
FenestrationSurface:Detailed,
    L2_Zone_26_Window_2,
    Window,
    Exterior Window,
    L2_Zone_26_Wall_1,
    ,
    ,
    ,
    ,
    4,
    25.2435,
    5.0738,
    10.0000,
    25.2435,
    5.0738,
    8.0000,
    26.2435,
    5.0738,
    8.0000,
    26.2435,
    5.0738,
    10.0000;
!- ======= AUTO-GENERATED HVAC IDEAL LOADS (ONE PER ZONE) =======
HVACTemplate:Zone:IdealLoadsAirSystem,
    L1_Zone_1,
    Constant Setpoint Thermostat,
    ,
    50,
    13,
    0.0156,
    0.0077,
    NoLimit,
    ,
    ,
    NoLimit,
    ,
    ,
    ,
    ,
    ConstantSensibleHeatRatio,
    0.7,
    60,
    None,
    30,
    None,
    0.00944,
    ,
    ,
    ,
    None,
    NoEconomizer,
    None,
    0.7,
    0.65;
HVACTemplate:Zone:IdealLoadsAirSystem,
    L1_Zone_2,
    Constant Setpoint Thermostat,
    ,
    50,
    13,
    0.0156,
    0.0077,
    NoLimit,
    ,
    ,
    NoLimit,
    ,
    ,
    ,
    ,
    ConstantSensibleHeatRatio,
    0.7,
    60,
    None,
    30,
    None,
    0.00944,
    ,
    ,
    ,
    None,
    NoEconomizer,
    None,
    0.7,
    0.65;
HVACTemplate:Zone:IdealLoadsAirSystem,
    L1_Zone_3,
    Constant Setpoint Thermostat,
    ,
    50,
    13,
    0.0156,
    0.0077,
    NoLimit,
    ,
    ,
    NoLimit,
    ,
    ,
    ,
    ,
    ConstantSensibleHeatRatio,
    0.7,
    60,
    None,
    30,
    None,
    0.00944,
    ,
    ,
    ,
    None,
    NoEconomizer,
    None,
    0.7,
    0.65;
HVACTemplate:Zone:IdealLoadsAirSystem,
    L1_Zone_4,
    Constant Setpoint Thermostat,
    ,
    50,
    13,
    0.0156,
    0.0077,
    NoLimit,
    ,
    ,
    NoLimit,
    ,
    ,
    ,
    ,
    ConstantSensibleHeatRatio,
    0.7,
    60,
    None,
    30,
    None,
    0.00944,
    ,
    ,
    ,
    None,
    NoEconomizer,
    None,
    0.7,
    0.65;
HVACTemplate:Zone:IdealLoadsAirSystem,
    L1_Zone_5,
    Constant Setpoint Thermostat,
    ,
    50,
    13,
    0.0156,
    0.0077,
    NoLimit,
    ,
    ,
    NoLimit,
    ,
    ,
    ,
    ,
    ConstantSensibleHeatRatio,
    0.7,
    60,
    None,
    30,
    None,
    0.00944,
    ,
    ,
    ,
    None,
    NoEconomizer,
    None,
    0.7,
    0.65;
HVACTemplate:Zone:IdealLoadsAirSystem,
    L1_Zone_6,
    Constant Setpoint Thermostat,
    ,
    50,
    13,
    0.0156,
    0.0077,
    NoLimit,
    ,
    ,
    NoLimit,
    ,
    ,
    ,
    ,
    ConstantSensibleHeatRatio,
    0.7,
    60,
    None,
    30,
    None,
    0.00944,
    ,
    ,
    ,
    None,
    NoEconomizer,
    None,
    0.7,
    0.65;
HVACTemplate:Zone:IdealLoadsAirSystem,
    L1_Zone_7,
    Constant Setpoint Thermostat,
    ,
    50,
    13,
    0.0156,
    0.0077,
    NoLimit,
    ,
    ,
    NoLimit,
    ,
    ,
    ,
    ,
    ConstantSensibleHeatRatio,
    0.7,
    60,
    None,
    30,
    None,
    0.00944,
    ,
    ,
    ,
    None,
    NoEconomizer,
    None,
    0.7,
    0.65;
HVACTemplate:Zone:IdealLoadsAirSystem,
    L1_Zone_8,
    Constant Setpoint Thermostat,
    ,
    50,
    13,
    0.0156,
    0.0077,
    NoLimit,
    ,
    ,
    NoLimit,
    ,
    ,
    ,
    ,
    ConstantSensibleHeatRatio,
    0.7,
    60,
    None,
    30,
    None,
    0.00944,
    ,
    ,
    ,
    None,
    NoEconomizer,
    None,
    0.7,
    0.65;
HVACTemplate:Zone:IdealLoadsAirSystem,
    L1_Zone_9,
    Constant Setpoint Thermostat,
    ,
    50,
    13,
    0.0156,
    0.0077,
    NoLimit,
    ,
    ,
    NoLimit,
    ,
    ,
    ,
    ,
    ConstantSensibleHeatRatio,
    0.7,
    60,
    None,
    30,
    None,
    0.00944,
    ,
    ,
    ,
    None,
    NoEconomizer,
    None,
    0.7,
    0.65;
HVACTemplate:Zone:IdealLoadsAirSystem,
    L1_Zone_10,
    Constant Setpoint Thermostat,
    ,
    50,
    13,
    0.0156,
    0.0077,
    NoLimit,
    ,
    ,
    NoLimit,
    ,
    ,
    ,
    ,
    ConstantSensibleHeatRatio,
    0.7,
    60,
    None,
    30,
    None,
    0.00944,
    ,
    ,
    ,
    None,
    NoEconomizer,
    None,
    0.7,
    0.65;
HVACTemplate:Zone:IdealLoadsAirSystem,
    L1_Zone_11,
    Constant Setpoint Thermostat,
    ,
    50,
    13,
    0.0156,
    0.0077,
    NoLimit,
    ,
    ,
    NoLimit,
    ,
    ,
    ,
    ,
    ConstantSensibleHeatRatio,
    0.7,
    60,
    None,
    30,
    None,
    0.00944,
    ,
    ,
    ,
    None,
    NoEconomizer,
    None,
    0.7,
    0.65;
HVACTemplate:Zone:IdealLoadsAirSystem,
    L1_Zone_19,
    Constant Setpoint Thermostat,
    ,
    50,
    13,
    0.0156,
    0.0077,
    NoLimit,
    ,
    ,
    NoLimit,
    ,
    ,
    ,
    ,
    ConstantSensibleHeatRatio,
    0.7,
    60,
    None,
    30,
    None,
    0.00944,
    ,
    ,
    ,
    None,
    NoEconomizer,
    None,
    0.7,
    0.65;
HVACTemplate:Zone:IdealLoadsAirSystem,
    L1_Zone_13,
    Constant Setpoint Thermostat,
    ,
    50,
    13,
    0.0156,
    0.0077,
    NoLimit,
    ,
    ,
    NoLimit,
    ,
    ,
    ,
    ,
    ConstantSensibleHeatRatio,
    0.7,
    60,
    None,
    30,
    None,
    0.00944,
    ,
    ,
    ,
    None,
    NoEconomizer,
    None,
    0.7,
    0.65;
HVACTemplate:Zone:IdealLoadsAirSystem,
    L1_Zone_14,
    Constant Setpoint Thermostat,
    ,
    50,
    13,
    0.0156,
    0.0077,
    NoLimit,
    ,
    ,
    NoLimit,
    ,
    ,
    ,
    ,
    ConstantSensibleHeatRatio,
    0.7,
    60,
    None,
    30,
    None,
    0.00944,
    ,
    ,
    ,
    None,
    NoEconomizer,
    None,
    0.7,
    0.65;
HVACTemplate:Zone:IdealLoadsAirSystem,
    L1_Zone_15,
    Constant Setpoint Thermostat,
    ,
    50,
    13,
    0.0156,
    0.0077,
    NoLimit,
    ,
    ,
    NoLimit,
    ,
    ,
    ,
    ,
    ConstantSensibleHeatRatio,
    0.7,
    60,
    None,
    30,
    None,
    0.00944,
    ,
    ,
    ,
    None,
    NoEconomizer,
    None,
    0.7,
    0.65;
HVACTemplate:Zone:IdealLoadsAirSystem,
    L1_Zone_16,
    Constant Setpoint Thermostat,
    ,
    50,
    13,
    0.0156,
    0.0077,
    NoLimit,
    ,
    ,
    NoLimit,
    ,
    ,
    ,
    ,
    ConstantSensibleHeatRatio,
    0.7,
    60,
    None,
    30,
    None,
    0.00944,
    ,
    ,
    ,
    None,
    NoEconomizer,
    None,
    0.7,
    0.65;
HVACTemplate:Zone:IdealLoadsAirSystem,
    L1_Zone_17,
    Constant Setpoint Thermostat,
    ,
    50,
    13,
    0.0156,
    0.0077,
    NoLimit,
    ,
    ,
    NoLimit,
    ,
    ,
    ,
    ,
    ConstantSensibleHeatRatio,
    0.7,
    60,
    None,
    30,
    None,
    0.00944,
    ,
    ,
    ,
    None,
    NoEconomizer,
    None,
    0.7,
    0.65;
HVACTemplate:Zone:IdealLoadsAirSystem,
    L1_Zone_18,
    Constant Setpoint Thermostat,
    ,
    50,
    13,
    0.0156,
    0.0077,
    NoLimit,
    ,
    ,
    NoLimit,
    ,
    ,
    ,
    ,
    ConstantSensibleHeatRatio,
    0.7,
    60,
    None,
    30,
    None,
    0.00944,
    ,
    ,
    ,
    None,
    NoEconomizer,
    None,
    0.7,
    0.65;
HVACTemplate:Zone:IdealLoadsAirSystem,
    L1_Zone_12,
    Constant Setpoint Thermostat,
    ,
    50,
    13,
    0.0156,
    0.0077,
    NoLimit,
    ,
    ,
    NoLimit,
    ,
    ,
    ,
    ,
    ConstantSensibleHeatRatio,
    0.7,
    60,
    None,
    30,
    None,
    0.00944,
    ,
    ,
    ,
    None,
    NoEconomizer,
    None,
    0.7,
    0.65;
HVACTemplate:Zone:IdealLoadsAirSystem,
    L2_Zone_20,
    Constant Setpoint Thermostat,
    ,
    50,
    13,
    0.0156,
    0.0077,
    NoLimit,
    ,
    ,
    NoLimit,
    ,
    ,
    ,
    ,
    ConstantSensibleHeatRatio,
    0.7,
    60,
    None,
    30,
    None,
    0.00944,
    ,
    ,
    ,
    None,
    NoEconomizer,
    None,
    0.7,
    0.65;
HVACTemplate:Zone:IdealLoadsAirSystem,
    L2_Zone_21,
    Constant Setpoint Thermostat,
    ,
    50,
    13,
    0.0156,
    0.0077,
    NoLimit,
    ,
    ,
    NoLimit,
    ,
    ,
    ,
    ,
    ConstantSensibleHeatRatio,
    0.7,
    60,
    None,
    30,
    None,
    0.00944,
    ,
    ,
    ,
    None,
    NoEconomizer,
    None,
    0.7,
    0.65;
HVACTemplate:Zone:IdealLoadsAirSystem,
    L2_Zone_22,
    Constant Setpoint Thermostat,
    ,
    50,
    13,
    0.0156,
    0.0077,
    NoLimit,
    ,
    ,
    NoLimit,
    ,
    ,
    ,
    ,
    ConstantSensibleHeatRatio,
    0.7,
    60,
    None,
    30,
    None,
    0.00944,
    ,
    ,
    ,
    None,
    NoEconomizer,
    None,
    0.7,
    0.65;
HVACTemplate:Zone:IdealLoadsAirSystem,
    L2_Zone_25,
    Constant Setpoint Thermostat,
    ,
    50,
    13,
    0.0156,
    0.0077,
    NoLimit,
    ,
    ,
    NoLimit,
    ,
    ,
    ,
    ,
    ConstantSensibleHeatRatio,
    0.7,
    60,
    None,
    30,
    None,
    0.00944,
    ,
    ,
    ,
    None,
    NoEconomizer,
    None,
    0.7,
    0.65;
HVACTemplate:Zone:IdealLoadsAirSystem,
    L2_Zone_24,
    Constant Setpoint Thermostat,
    ,
    50,
    13,
    0.0156,
    0.0077,
    NoLimit,
    ,
    ,
    NoLimit,
    ,
    ,
    ,
    ,
    ConstantSensibleHeatRatio,
    0.7,
    60,
    None,
    30,
    None,
    0.00944,
    ,
    ,
    ,
    None,
    NoEconomizer,
    None,
    0.7,
    0.65;
HVACTemplate:Zone:IdealLoadsAirSystem,
    L2_Zone_23,
    Constant Setpoint Thermostat,
    ,
    50,
    13,
    0.0156,
    0.0077,
    NoLimit,
    ,
    ,
    NoLimit,
    ,
    ,
    ,
    ,
    ConstantSensibleHeatRatio,
    0.7,
    60,
    None,
    30,
    None,
    0.00944,
    ,
    ,
    ,
    None,
    NoEconomizer,
    None,
    0.7,
    0.65;
HVACTemplate:Zone:IdealLoadsAirSystem,
    L2_Zone_27,
    Constant Setpoint Thermostat,
    ,
    50,
    13,
    0.0156,
    0.0077,
    NoLimit,
    ,
    ,
    NoLimit,
    ,
    ,
    ,
    ,
    ConstantSensibleHeatRatio,
    0.7,
    60,
    None,
    30,
    None,
    0.00944,
    ,
    ,
    ,
    None,
    NoEconomizer,
    None,
    0.7,
    0.65;
HVACTemplate:Zone:IdealLoadsAirSystem,
    L2_Zone_28,
    Constant Setpoint Thermostat,
    ,
    50,
    13,
    0.0156,
    0.0077,
    NoLimit,
    ,
    ,
    NoLimit,
    ,
    ,
    ,
    ,
    ConstantSensibleHeatRatio,
    0.7,
    60,
    None,
    30,
    None,
    0.00944,
    ,
    ,
    ,
    None,
    NoEconomizer,
    None,
    0.7,
    0.65;
HVACTemplate:Zone:IdealLoadsAirSystem,
    L2_Zone_29,
    Constant Setpoint Thermostat,
    ,
    50,
    13,
    0.0156,
    0.0077,
    NoLimit,
    ,
    ,
    NoLimit,
    ,
    ,
    ,
    ,
    ConstantSensibleHeatRatio,
    0.7,
    60,
    None,
    30,
    None,
    0.00944,
    ,
    ,
    ,
    None,
    NoEconomizer,
    None,
    0.7,
    0.65;
HVACTemplate:Zone:IdealLoadsAirSystem,
    L2_Zone_30,
    Constant Setpoint Thermostat,
    ,
    50,
    13,
    0.0156,
    0.0077,
    NoLimit,
    ,
    ,
    NoLimit,
    ,
    ,
    ,
    ,
    ConstantSensibleHeatRatio,
    0.7,
    60,
    None,
    30,
    None,
    0.00944,
    ,
    ,
    ,
    None,
    NoEconomizer,
    None,
    0.7,
    0.65;
HVACTemplate:Zone:IdealLoadsAirSystem,
    L2_Zone_31,
    Constant Setpoint Thermostat,
    ,
    50,
    13,
    0.0156,
    0.0077,
    NoLimit,
    ,
    ,
    NoLimit,
    ,
    ,
    ,
    ,
    ConstantSensibleHeatRatio,
    0.7,
    60,
    None,
    30,
    None,
    0.00944,
    ,
    ,
    ,
    None,
    NoEconomizer,
    None,
    0.7,
    0.65;
HVACTemplate:Zone:IdealLoadsAirSystem,
    L2_Zone_32,
    Constant Setpoint Thermostat,
    ,
    50,
    13,
    0.0156,
    0.0077,
    NoLimit,
    ,
    ,
    NoLimit,
    ,
    ,
    ,
    ,
    ConstantSensibleHeatRatio,
    0.7,
    60,
    None,
    30,
    None,
    0.00944,
    ,
    ,
    ,
    None,
    NoEconomizer,
    None,
    0.7,
    0.65;
HVACTemplate:Zone:IdealLoadsAirSystem,
    L2_Zone_34,
    Constant Setpoint Thermostat,
    ,
    50,
    13,
    0.0156,
    0.0077,
    NoLimit,
    ,
    ,
    NoLimit,
    ,
    ,
    ,
    ,
    ConstantSensibleHeatRatio,
    0.7,
    60,
    None,
    30,
    None,
    0.00944,
    ,
    ,
    ,
    None,
    NoEconomizer,
    None,
    0.7,
    0.65;
HVACTemplate:Zone:IdealLoadsAirSystem,
    L2_Zone_35,
    Constant Setpoint Thermostat,
    ,
    50,
    13,
    0.0156,
    0.0077,
    NoLimit,
    ,
    ,
    NoLimit,
    ,
    ,
    ,
    ,
    ConstantSensibleHeatRatio,
    0.7,
    60,
    None,
    30,
    None,
    0.00944,
    ,
    ,
    ,
    None,
    NoEconomizer,
    None,
    0.7,
    0.65;
HVACTemplate:Zone:IdealLoadsAirSystem,
    L2_Zone_36,
    Constant Setpoint Thermostat,
    ,
    50,
    13,
    0.0156,
    0.0077,
    NoLimit,
    ,
    ,
    NoLimit,
    ,
    ,
    ,
    ,
    ConstantSensibleHeatRatio,
    0.7,
    60,
    None,
    30,
    None,
    0.00944,
    ,
    ,
    ,
    None,
    NoEconomizer,
    None,
    0.7,
    0.65;
HVACTemplate:Zone:IdealLoadsAirSystem,
    L2_Zone_37,
    Constant Setpoint Thermostat,
    ,
    50,
    13,
    0.0156,
    0.0077,
    NoLimit,
    ,
    ,
    NoLimit,
    ,
    ,
    ,
    ,
    ConstantSensibleHeatRatio,
    0.7,
    60,
    None,
    30,
    None,
    0.00944,
    ,
    ,
    ,
    None,
    NoEconomizer,
    None,
    0.7,
    0.65;
HVACTemplate:Zone:IdealLoadsAirSystem,
    L2_Zone_38,
    Constant Setpoint Thermostat,
    ,
    50,
    13,
    0.0156,
    0.0077,
    NoLimit,
    ,
    ,
    NoLimit,
    ,
    ,
    ,
    ,
    ConstantSensibleHeatRatio,
    0.7,
    60,
    None,
    30,
    None,
    0.00944,
    ,
    ,
    ,
    None,
    NoEconomizer,
    None,
    0.7,
    0.65;
HVACTemplate:Zone:IdealLoadsAirSystem,
    L2_Zone_39,
    Constant Setpoint Thermostat,
    ,
    50,
    13,
    0.0156,
    0.0077,
    NoLimit,
    ,
    ,
    NoLimit,
    ,
    ,
    ,
    ,
    ConstantSensibleHeatRatio,
    0.7,
    60,
    None,
    30,
    None,
    0.00944,
    ,
    ,
    ,
    None,
    NoEconomizer,
    None,
    0.7,
    0.65;
HVACTemplate:Zone:IdealLoadsAirSystem,
    L2_Zone_40,
    Constant Setpoint Thermostat,
    ,
    50,
    13,
    0.0156,
    0.0077,
    NoLimit,
    ,
    ,
    NoLimit,
    ,
    ,
    ,
    ,
    ConstantSensibleHeatRatio,
    0.7,
    60,
    None,
    30,
    None,
    0.00944,
    ,
    ,
    ,
    None,
    NoEconomizer,
    None,
    0.7,
    0.65;
HVACTemplate:Zone:IdealLoadsAirSystem,
    L2_Zone_42,
    Constant Setpoint Thermostat,
    ,
    50,
    13,
    0.0156,
    0.0077,
    NoLimit,
    ,
    ,
    NoLimit,
    ,
    ,
    ,
    ,
    ConstantSensibleHeatRatio,
    0.7,
    60,
    None,
    30,
    None,
    0.00944,
    ,
    ,
    ,
    None,
    NoEconomizer,
    None,
    0.7,
    0.65;
HVACTemplate:Zone:IdealLoadsAirSystem,
    L2_Zone_43,
    Constant Setpoint Thermostat,
    ,
    50,
    13,
    0.0156,
    0.0077,
    NoLimit,
    ,
    ,
    NoLimit,
    ,
    ,
    ,
    ,
    ConstantSensibleHeatRatio,
    0.7,
    60,
    None,
    30,
    None,
    0.00944,
    ,
    ,
    ,
    None,
    NoEconomizer,
    None,
    0.7,
    0.65;
HVACTemplate:Zone:IdealLoadsAirSystem,
    L2_Zone_44,
    Constant Setpoint Thermostat,
    ,
    50,
    13,
    0.0156,
    0.0077,
    NoLimit,
    ,
    ,
    NoLimit,
    ,
    ,
    ,
    ,
    ConstantSensibleHeatRatio,
    0.7,
    60,
    None,
    30,
    None,
    0.00944,
    ,
    ,
    ,
    None,
    NoEconomizer,
    None,
    0.7,
    0.65;
HVACTemplate:Zone:IdealLoadsAirSystem,
    L3_Zone_45,
    Constant Setpoint Thermostat,
    ,
    50,
    13,
    0.0156,
    0.0077,
    NoLimit,
    ,
    ,
    NoLimit,
    ,
    ,
    ,
    ,
    ConstantSensibleHeatRatio,
    0.7,
    60,
    None,
    30,
    None,
    0.00944,
    ,
    ,
    ,
    None,
    NoEconomizer,
    None,
    0.7,
    0.65;
HVACTemplate:Zone:IdealLoadsAirSystem,
    L3_Zone_46,
    Constant Setpoint Thermostat,
    ,
    50,
    13,
    0.0156,
    0.0077,
    NoLimit,
    ,
    ,
    NoLimit,
    ,
    ,
    ,
    ,
    ConstantSensibleHeatRatio,
    0.7,
    60,
    None,
    30,
    None,
    0.00944,
    ,
    ,
    ,
    None,
    NoEconomizer,
    None,
    0.7,
    0.65;
HVACTemplate:Zone:IdealLoadsAirSystem,
    L3_Zone_47,
    Constant Setpoint Thermostat,
    ,
    50,
    13,
    0.0156,
    0.0077,
    NoLimit,
    ,
    ,
    NoLimit,
    ,
    ,
    ,
    ,
    ConstantSensibleHeatRatio,
    0.7,
    60,
    None,
    30,
    None,
    0.00944,
    ,
    ,
    ,
    None,
    NoEconomizer,
    None,
    0.7,
    0.65;
HVACTemplate:Zone:IdealLoadsAirSystem,
    L3_Zone_49,
    Constant Setpoint Thermostat,
    ,
    50,
    13,
    0.0156,
    0.0077,
    NoLimit,
    ,
    ,
    NoLimit,
    ,
    ,
    ,
    ,
    ConstantSensibleHeatRatio,
    0.7,
    60,
    None,
    30,
    None,
    0.00944,
    ,
    ,
    ,
    None,
    NoEconomizer,
    None,
    0.7,
    0.65;
HVACTemplate:Zone:IdealLoadsAirSystem,
    L3_Zone_50,
    Constant Setpoint Thermostat,
    ,
    50,
    13,
    0.0156,
    0.0077,
    NoLimit,
    ,
    ,
    NoLimit,
    ,
    ,
    ,
    ,
    ConstantSensibleHeatRatio,
    0.7,
    60,
    None,
    30,
    None,
    0.00944,
    ,
    ,
    ,
    None,
    NoEconomizer,
    None,
    0.7,
    0.65;
HVACTemplate:Zone:IdealLoadsAirSystem,
    L3_Zone_51,
    Constant Setpoint Thermostat,
    ,
    50,
    13,
    0.0156,
    0.0077,
    NoLimit,
    ,
    ,
    NoLimit,
    ,
    ,
    ,
    ,
    ConstantSensibleHeatRatio,
    0.7,
    60,
    None,
    30,
    None,
    0.00944,
    ,
    ,
    ,
    None,
    NoEconomizer,
    None,
    0.7,
    0.65;
HVACTemplate:Zone:IdealLoadsAirSystem,
    L3_Zone_52,
    Constant Setpoint Thermostat,
    ,
    50,
    13,
    0.0156,
    0.0077,
    NoLimit,
    ,
    ,
    NoLimit,
    ,
    ,
    ,
    ,
    ConstantSensibleHeatRatio,
    0.7,
    60,
    None,
    30,
    None,
    0.00944,
    ,
    ,
    ,
    None,
    NoEconomizer,
    None,
    0.7,
    0.65;
HVACTemplate:Zone:IdealLoadsAirSystem,
    L3_Zone_53,
    Constant Setpoint Thermostat,
    ,
    50,
    13,
    0.0156,
    0.0077,
    NoLimit,
    ,
    ,
    NoLimit,
    ,
    ,
    ,
    ,
    ConstantSensibleHeatRatio,
    0.7,
    60,
    None,
    30,
    None,
    0.00944,
    ,
    ,
    ,
    None,
    NoEconomizer,
    None,
    0.7,
    0.65;
HVACTemplate:Zone:IdealLoadsAirSystem,
    L3_Zone_54,
    Constant Setpoint Thermostat,
    ,
    50,
    13,
    0.0156,
    0.0077,
    NoLimit,
    ,
    ,
    NoLimit,
    ,
    ,
    ,
    ,
    ConstantSensibleHeatRatio,
    0.7,
    60,
    None,
    30,
    None,
    0.00944,
    ,
    ,
    ,
    None,
    NoEconomizer,
    None,
    0.7,
    0.65;
HVACTemplate:Zone:IdealLoadsAirSystem,
    L3_Zone_55,
    Constant Setpoint Thermostat,
    ,
    50,
    13,
    0.0156,
    0.0077,
    NoLimit,
    ,
    ,
    NoLimit,
    ,
    ,
    ,
    ,
    ConstantSensibleHeatRatio,
    0.7,
    60,
    None,
    30,
    None,
    0.00944,
    ,
    ,
    ,
    None,
    NoEconomizer,
    None,
    0.7,
    0.65;
HVACTemplate:Zone:IdealLoadsAirSystem,
    L3_Zone_56,
    Constant Setpoint Thermostat,
    ,
    50,
    13,
    0.0156,
    0.0077,
    NoLimit,
    ,
    ,
    NoLimit,
    ,
    ,
    ,
    ,
    ConstantSensibleHeatRatio,
    0.7,
    60,
    None,
    30,
    None,
    0.00944,
    ,
    ,
    ,
    None,
    NoEconomizer,
    None,
    0.7,
    0.65;
HVACTemplate:Zone:IdealLoadsAirSystem,
    L3_Zone_57,
    Constant Setpoint Thermostat,
    ,
    50,
    13,
    0.0156,
    0.0077,
    NoLimit,
    ,
    ,
    NoLimit,
    ,
    ,
    ,
    ,
    ConstantSensibleHeatRatio,
    0.7,
    60,
    None,
    30,
    None,
    0.00944,
    ,
    ,
    ,
    None,
    NoEconomizer,
    None,
    0.7,
    0.65;
HVACTemplate:Zone:IdealLoadsAirSystem,
    L4_Zone_58,
    Constant Setpoint Thermostat,
    ,
    50,
    13,
    0.0156,
    0.0077,
    NoLimit,
    ,
    ,
    NoLimit,
    ,
    ,
    ,
    ,
    ConstantSensibleHeatRatio,
    0.7,
    60,
    None,
    30,
    None,
    0.00944,
    ,
    ,
    ,
    None,
    NoEconomizer,
    None,
    0.7,
    0.65;
HVACTemplate:Zone:IdealLoadsAirSystem,
    L4_Zone_60,
    Constant Setpoint Thermostat,
    ,
    50,
    13,
    0.0156,
    0.0077,
    NoLimit,
    ,
    ,
    NoLimit,
    ,
    ,
    ,
    ,
    ConstantSensibleHeatRatio,
    0.7,
    60,
    None,
    30,
    None,
    0.00944,
    ,
    ,
    ,
    None,
    NoEconomizer,
    None,
    0.7,
    0.65;
HVACTemplate:Zone:IdealLoadsAirSystem,
    L4_Zone_61,
    Constant Setpoint Thermostat,
    ,
    50,
    13,
    0.0156,
    0.0077,
    NoLimit,
    ,
    ,
    NoLimit,
    ,
    ,
    ,
    ,
    ConstantSensibleHeatRatio,
    0.7,
    60,
    None,
    30,
    None,
    0.00944,
    ,
    ,
    ,
    None,
    NoEconomizer,
    None,
    0.7,
    0.65;
HVACTemplate:Zone:IdealLoadsAirSystem,
    L2_Zone_26,
    Constant Setpoint Thermostat,
    ,
    50,
    13,
    0.0156,
    0.0077,
    NoLimit,
    ,
    ,
    NoLimit,
    ,
    ,
    ,
    ,
    ConstantSensibleHeatRatio,
    0.7,
    60,
    None,
    30,
    None,
    0.00944,
    ,
    ,
    ,
    None,
    NoEconomizer,
    None,
    0.7,
    0.65;
